ITEM: TIMESTEP
0
ITEM: NUMBER OF ATOMS
108
ITEM: BOX BOUNDS pp pp pp
0.0000000000000000e+00 5.0387885741475218e+00
0.0000000000000000e+00 5.0387885741475218e+00
0.0000000000000000e+00 5.0387885741475218e+00
ITEM: ATOMS id type element x y z ix iy iz vx vy vz
1 1 Ar 0.00000 0.00000 0.00000 0 0 0 1.9848 -0.5132 -4.6737
2 1 Ar 0.83980 0.83980 0.00000 0 0 0 -3.1753 -3.3259 -1.2924
3 1 Ar 0.83980 0.00000 0.83980 0 0 0 -1.1620 -1.2940 0.3364
4 1 Ar 0.00000 0.83980 0.83980 0 0 0 0.3731 -0.6324 1.2617
5 1 Ar 0.00000 0.00000 1.67960 0 0 0 0.8599 -4.4582 -0.7299
6 1 Ar 0.83980 0.83980 1.67960 0 0 0 -0.3274 -1.0831 -2.4477
7 1 Ar 0.83980 0.00000 2.51939 0 0 0 2.3367 -0.4122 3.7418
8 1 Ar 0.00000 0.83980 2.51939 0 0 0 0.5399 -2.0733 -1.2271
9 1 Ar 0.00000 0.00000 3.35919 0 0 0 0.7423 -3.1909 2.0705
10 1 Ar 0.83980 0.83980 3.35919 0 0 0 0.8231 -3.3635 1.7425
11 1 Ar 0.83980 0.00000 4.19899 0 0 0 1.9743 1.6420 -0.7862
12 1 Ar 0.00000 0.83980 4.19899 0 0 0 0.3841 -0.3579 -0.9017
13 1 Ar 0.00000 1.67960 0.00000 0 0 0 -0.3392 -0.5263 3.3492
14 1 Ar 0.83980 2.51939 0.00000 0 0 0 0.8449 -1.9662 1.9860
15 1 Ar 0.83980 1.67960 0.83980 0 0 0 -1.5462 -3.3323 0.1116
16 1 Ar 0.00000 2.51939 0.83980 0 0 0 -0.4432 1.1092 2.9348
17 1 Ar 0.00000 1.67960 1.67960 0 0 0 0.2696 0.7162 1.2834
18 1 Ar 0.83980 2.51939 1.67960 0 0 0 -0.1002 2.3020 -0.5526
19 1 Ar 0.83980 1.67960 2.51939 0 0 0 -0.5093 -0.7341 0.2123
20 1 Ar 0.00000 2.51939 2.51939 0 0 0 -0.0879 2.4853 -0.4105
21 1 Ar 0.00000 1.67960 3.35919 0 0 0 -2.1127 -1.1940 -0.8693
22 1 Ar 0.83980 2.51939 3.35919 0 0 0 0.4233 -1.7422 1.5762
23 1 Ar 0.83980 1.67960 4.19899 0 0 0 0.7395 -1.4777 -1.8850
24 1 Ar 0.00000 2.51939 4.19899 0 0 0 -1.3494 1.8416 0.3933
25 1 Ar 0.00000 3.35919 0.00000 0 0 0 1.0832 0.5811 -1.4744
26 1 Ar 0.83980 4.19899 0.00000 0 0 0 0.8340 2.4068 -4.3095
27 1 Ar 0.83980 3.35919 0.83980 0 0 0 2.1814 -0.3857 -3.7240
28 1 Ar 0.00000 4.19899 0.83980 0 0 0 -0.4758 1.6305 -0.7984
29 1 Ar 0.00000 3.35919 1.67960 0 0 0 1.3574 -0.2502 -0.6927
30 1 Ar 0.83980 4.19899 1.67960 0 0 0 1.9054 5.0005 -0.1405
31 1 Ar 0.83980 3.35919 2.51939 0 0 0 -1.1341 -0.8114 -0.9906
32 1 Ar 0.00000 4.19899 2.51939 0 0 0 -1.7082 1.7574 -0.1995
33 1 Ar 0.00000 3.35919 3.35919 0 0 0 -1.6350 1.6772 0.6392
34 1 Ar 0.83980 4.19899 3.35919 0 0 0 -0.0546 -1.4275 -0.8221
35 1 Ar 0.83980 3.35919 4.19899 0 0 0 -0.2353 3.4095 -0.7639
36 1 Ar 0.00000 4.19899 4.19899 0 0 0 1.6635 -0.5353 -0.5493
37 1 Ar 1.67960 0.00000 0.00000 0 0 0 -2.8578 -4.5133 2.1714
38 1 Ar 2.51939 0.83980 0.00000 0 0 0 -2.4954 -2.8216 0.0515
39 1 Ar 2.51939 0.00000 0.83980 0 0 0 3.0567 1.2542 -3.1281
40 1 Ar 1.67960 0.83980 0.83980 0 0 0 3.6656 -1.7053 -1.2429
41 1 Ar 1.67960 0.00000 1.67960 0 0 0 2.1392 1.0665 -0.4956
42 1 Ar 2.51939 0.83980 1.67960 0 0 0 0.6015 1.7655 -0.4462
43 1 Ar 2.51939 0.00000 2.51939 0 0 0 -1.3614 2.1500 1.7371
44 1 Ar 1.67960 0.83980 2.51939 0 0 0 -0.4117 0.3692 -1.6157
45 1 Ar 1.67960 0.00000 3.35919 0 0 0 0.1191 1.4686 2.3160
46 1 Ar 2.51939 0.83980 3.35919 0 0 0 -2.0441 2.2423 0.1517
47 1 Ar 2.51939 0.00000 4.19899 0 0 0 -0.7949 -1.3916 -1.2730
48 1 Ar 1.67960 0.83980 4.19899 0 0 0 1.6937 -1.2775 1.0713
49 1 Ar 1.67960 1.67960 0.00000 0 0 0 -0.2336 0.3167 1.8541
50 1 Ar 2.51939 2.51939 0.00000 0 0 0 -1.8413 0.1142 1.0245
51 1 Ar 2.51939 1.67960 0.83980 0 0 0 1.5920 -1.7307 0.7798
52 1 Ar 1.67960 2.51939 0.83980 0 0 0 -1.3566 1.0367 -0.4644
53 1 Ar 1.67960 1.67960 1.67960 0 0 0 2.2736 0.6036 -0.6235
54 1 Ar 2.51939 2.51939 1.67960 0 0 0 -0.4029 -2.1120 1.3447
55 1 Ar 2.51939 1.67960 2.51939 0 0 0 -0.1835 0.8786 1.2891
56 1 Ar 1.67960 2.51939 2.51939 0 0 0 -1.8833 0.3744 2.7205
57 1 Ar 1.67960 1.67960 3.35919 0 0 0 -0.3906 0.1537 0.8568
58 1 Ar 2.51939 2.51939 3.35919 0 0 0 0.8192 -2.0181 -0.8714
59 1 Ar 2.51939 1.67960 4.19899 0 0 0 -0.0746 0.3844 2.3467
60 1 Ar 1.67960 2.51939 4.19899 0 0 0 1.1278 0.1374 -0.4767
61 1 Ar 1.67960 3.35919 0.00000 0 0 0 -0.0378 0.3758 -0.4518
62 1 Ar 2.51939 4.19899 0.00000 0 0 0 -0.8360 0.7599 2.2871
63 1 Ar 2.51939 3.35919 0.83980 0 0 0 -1.7780 0.1752 0.2629
64 1 Ar 1.67960 4.19899 0.83980 0 0 0 0.2318 0.0622 -0.6451
65 1 Ar 1.67960 3.35919 1.67960 0 0 0 -0.6269 -2.3917 0.6700
66 1 Ar 2.51939 4.19899 1.67960 0 0 0 0.2221 -1.8371 -0.9456
67 1 Ar 2.51939 3.35919 2.51939 0 0 0 0.6139 0.9403 2.1111
68 1 Ar 1.67960 4.19899 2.51939 0 0 0 -1.1694 2.2108 2.9428
69 1 Ar 1.67960 3.35919 3.35919 0 0 0 -0.0104 1.9767 0.9534
70 1 Ar 2.51939 4.19899 3.35919 0 0 0 -2.5510 0.7827 0.5314
71 1 Ar 2.51939 3.35919 4.19899 0 0 0 1.1784 0.6010 0.8787
72 1 Ar 1.67960 4.19899 4.19899 0 0 0 -0.9317 -1.4280 -0.9778
73 1 Ar 3.35919 0.00000 0.00000 0 0 0 -0.5406 -5.0898 -0.2002
74 1 Ar 4.19899 0.83980 0.00000 0 0 0 -1.8895 -2.5722 2.1022
75 1 Ar 4.19899 0.00000 0.83980 0 0 0 0.0185 -1.1030 -1.6739
76 1 Ar 3.35919 0.83980 0.83980 0 0 0 0.2514 -1.2396 1.3044
77 1 Ar 3.35919 0.00000 1.67960 0 0 0 -0.1943 1.4598 -2.7587
78 1 Ar 4.19899 0.83980 1.67960 0 0 0 2.7305 0.8853 1.7297
79 1 Ar 4.19899 0.00000 2.51939 0 0 0 0.7760 1.4839 0.2431
80 1 Ar 3.35919 0.83980 2.51939 0 0 0 -2.5265 0.7239 0.9312
81 1 Ar 3.35919 0.00000 3.35919 0 0 0 -2.7227 2.4350 -2.5506
82 1 Ar 4.19899 0.83980 3.35919 0 0 0 -2.4502 1.9456 1.4237
83 1 Ar 4.19899 0.00000 4.19899 0 0 0 0.2165 0.5174 1.4046
84 1 Ar 3.35919 0.83980 4.19899 0 0 0 -3.9599 -1.4019 -0.6175
85 1 Ar 3.35919 1.67960 0.00000 0 0 0 3.0048 1.5095 1.4229
86 1 Ar 4.19899 2.51939 0.00000 0 0 0 -1.0790 0.2381 -0.4986
87 1 Ar 4.19899 1.67960 0.83980 0 0 0 -1.9579 0.0139 -0.8204
88 1 Ar 3.35919 2.51939 0.83980 0 0 0 0.4744 2.8969 -0.7156
89 1 Ar 3.35919 1.67960 1.67960 0 0 0 2.8962 -0.7454 0.8655
90 1 Ar 4.19899 2.51939 1.67960 0 0 0 -0.1935 -3.3724 2.8808
91 1 Ar 4.19899 1.67960 2.51939 0 0 0 1.9092 -1.4056 -2.3565
92 1 Ar 3.35919 2.51939 2.51939 0 0 0 1.5914 1.1870 1.1628
93 1 Ar 3.35919 1.67960 3.35919 0 0 0 1.5142 2.4278 0.6495
94 1 Ar 4.19899 2.51939 3.35919 0 0 0 -1.0740 1.1994 -1.1893
95 1 Ar 4.19899 1.67960 4.19899 0 0 0 1.4399 2.0555 -4.9316
96 1 Ar 3.35919 2.51939 4.19899 0 0 0 -1.3017 2.1202 0.1466
97 1 Ar 3.35919 3.35919 0.00000 0 0 0 -0.5873 2.0716 -1.0296
98 1 Ar 4.19899 4.19899 0.00000 0 0 0 -2.3998 0.2800 -0.1177
99 1 Ar 4.19899 3.35919 0.83980 0 0 0 3.6028 -0.8949 -1.7645
100 1 Ar 3.35919 4.19899 0.83980 0 0 0 3.7246 2.0054 -1.4652
101 1 Ar 3.35919 3.35919 1.67960 0 0 0 0.3880 -0.6725 2.1321
102 1 Ar 4.19899 4.19899 1.67960 0 0 0 -0.4999 -1.2799 -1.3124
103 1 Ar 4.19899 3.35919 2.51939 0 0 0 -0.1965 -1.3756 -1.0589
104 1 Ar 3.35919 4.19899 2.51939 0 0 0 1.0659 0.0400 -4.9944
105 1 Ar 3.35919 3.35919 3.35919 0 0 0 -0.1082 -1.0063 1.6532
106 1 Ar 4.19899 4.19899 3.35919 0 0 0 -1.1215 -0.4572 2.3415
107 1 Ar 4.19899 3.35919 4.19899 0 0 0 -0.2102 2.0563 0.7817
108 1 Ar 3.35919 4.19899 4.19899 0 0 0 -0.5777 2.6184 -1.2127
ITEM: TIMESTEP
40
ITEM: NUMBER OF ATOMS
108
ITEM: BOX BOUNDS pp pp pp
0.0000000000000000e+00 5.0387885741475218e+00
0.0000000000000000e+00 5.0387885741475218e+00
0.0000000000000000e+00 5.0387885741475218e+00
ITEM: ATOMS id type element x y z ix iy iz vx vy vz
1 1 Ar 0.01467 4.93782 4.47402 0 -1 -1 0.1966 0.2542 -0.1012
2 1 Ar 0.59859 0.72182 0.02793 0 0 0 -0.0114 1.0841 0.0016
3 1 Ar 0.64660 4.93662 0.67480 0 -1 0 0.0758 -0.6042 -1.1037
4 1 Ar 0.01475 0.64254 0.80204 0 0 0 1.5617 0.8623 -1.8690
5 1 Ar 0.04294 4.62806 1.58729 0 -1 0 0.9460 0.4620 -0.2857
6 1 Ar 0.92277 0.52474 1.55419 0 0 0 0.0897 0.0569 -0.4253
7 1 Ar 0.94187 4.97574 2.83359 0 -1 0 1.2583 -2.4591 0.5570
8 1 Ar 0.30288 0.52682 2.38203 0 0 0 -0.0305 0.5075 -1.3792
9 1 Ar 0.10366 4.90282 3.42195 0 -1 0 0.0546 1.6884 -0.7243
10 1 Ar 0.87214 0.81530 3.31065 0 0 0 3.1804 -1.5172 -1.7052
11 1 Ar 1.14671 0.07842 4.31367 0 0 0 0.0947 0.1898 0.7961
12 1 Ar 4.97795 0.81175 3.97985 -1 0 0 -1.5251 -0.3649 -0.2381
13 1 Ar 4.87660 1.63966 0.40939 -1 0 0 -0.1320 -0.0950 -0.2819
14 1 Ar 0.73510 2.18208 0.21007 0 0 0 -1.6313 -0.8814 0.1671
15 1 Ar 0.87215 1.33468 0.81635 0 0 0 1.4910 -0.7362 0.5666
16 1 Ar 4.88808 2.43031 1.12238 -1 0 0 -1.4608 -0.2365 -1.1296
17 1 Ar 0.22075 1.71215 1.81773 0 0 0 1.0301 -1.2582 0.4759
18 1 Ar 0.82663 2.61869 1.60457 0 0 0 0.1258 -0.6837 0.5605
19 1 Ar 0.87805 1.58619 2.56082 0 0 0 1.6924 1.3234 0.0506
20 1 Ar 0.01933 2.65971 2.51594 0 0 0 1.1178 -1.0739 0.4238
21 1 Ar 0.13791 1.42529 3.24681 0 0 0 -1.1973 1.5699 1.2661
22 1 Ar 0.68227 2.34582 3.67986 0 0 0 -2.6714 -1.6427 0.9275
23 1 Ar 0.83600 1.47576 4.30027 0 0 0 -1.5653 1.2907 4.2971
24 1 Ar 4.93164 2.86199 4.14804 -1 0 0 1.6057 1.3714 -1.7019
25 1 Ar 0.21496 3.39483 4.86317 0 0 -1 -0.3492 -2.6608 -0.9451
26 1 Ar 0.82518 4.15434 4.81395 0 0 -1 1.1987 -0.2201 1.3549
27 1 Ar 0.95137 3.43410 0.46993 0 0 0 1.6721 0.3273 1.6736
28 1 Ar 0.10490 4.16413 0.44915 0 0 0 3.8652 -0.7255 -0.6877
29 1 Ar 0.25233 3.58069 1.62499 0 0 0 3.7788 0.5522 0.2671
30 1 Ar 1.30070 4.75103 1.93528 0 0 0 1.9402 -0.5097 1.8774
31 1 Ar 0.86385 3.42087 2.43761 0 0 0 1.6114 0.4430 -0.8560
32 1 Ar 4.72632 4.32022 2.65919 -1 0 0 -1.2558 0.3859 -0.0629
33 1 Ar 4.88793 3.52184 3.13096 -1 0 0 2.5373 0.6044 -3.5445
34 1 Ar 0.68445 4.02656 3.19685 0 0 0 -0.9186 0.3253 0.3744
35 1 Ar 0.92271 3.17104 4.00707 0 0 0 1.0090 -2.0960 0.0048
36 1 Ar 4.84257 3.95613 4.13099 -1 0 0 -0.8735 0.3262 -0.4724
37 1 Ar 1.60892 4.95568 0.19462 0 -1 0 0.9313 1.5443 0.2446
38 1 Ar 2.46937 0.47733 5.02402 0 0 -1 0.4815 1.1892 2.0635
39 1 Ar 2.89852 0.02554 0.72334 0 0 0 0.1082 -1.0761 0.1578
40 1 Ar 1.99417 0.74827 0.82815 0 0 0 -0.0320 1.3093 -0.2741
41 1 Ar 2.28410 0.07803 1.66149 0 0 0 3.9474 -2.5140 -0.9453
42 1 Ar 2.64200 1.00374 1.73001 0 0 0 0.1646 0.9981 -0.2794
43 1 Ar 2.15505 0.29344 2.57974 0 0 0 -0.0363 0.8324 -0.7277
44 1 Ar 1.51619 1.01623 2.21311 0 0 0 -0.4102 0.5261 -1.6694
45 1 Ar 1.75856 0.09666 3.47754 0 0 0 -0.6942 -0.7659 1.0844
46 1 Ar 2.32661 1.04907 3.31203 0 0 0 -0.2772 0.1333 -1.8953
47 1 Ar 2.39093 4.81323 4.37597 0 -1 0 0.1034 -0.6402 1.6024
48 1 Ar 1.68521 0.99189 4.14196 0 0 0 0.1266 2.8070 -0.7505
49 1 Ar 1.75310 1.57881 0.34804 0 0 0 0.9871 -0.9698 1.3283
50 1 Ar 2.30227 2.53381 0.12752 0 0 0 0.0354 -0.7456 -0.6834
51 1 Ar 2.71913 1.68386 0.73960 0 0 0 -0.6151 2.3256 -1.4962
52 1 Ar 1.57371 2.54811 0.94409 0 0 0 -0.6627 -1.2275 1.0500
53 1 Ar 1.77210 1.63842 1.47221 0 0 0 -0.7478 -0.1633 -1.9890
54 1 Ar 2.69251 2.43722 1.85345 0 0 0 0.5260 0.0146 -0.7282
55 1 Ar 2.26618 1.76559 2.54945 0 0 0 -3.2974 0.9817 -0.5600
56 1 Ar 1.44013 2.59568 2.83025 0 0 0 -0.9248 -0.1701 -1.1772
57 1 Ar 1.59276 1.81469 3.42107 0 0 0 -0.5710 0.4077 0.2941
58 1 Ar 2.50156 2.52560 3.44072 0 0 0 -0.4897 1.9674 0.2285
59 1 Ar 2.49416 1.70978 4.59558 0 0 0 -0.6535 -0.5481 1.0309
60 1 Ar 1.86417 2.59285 4.14299 0 0 0 -0.3105 0.7415 0.9824
61 1 Ar 1.78366 3.41633 4.80238 0 0 -1 -1.2843 -0.7071 0.1282
62 1 Ar 2.33346 4.15440 0.28455 0 0 0 -0.5554 -0.3886 0.8639
63 1 Ar 2.32923 3.23752 0.81006 0 0 0 0.8383 -0.4379 0.0976
64 1 Ar 1.54479 3.97851 1.20730 0 0 0 -2.3197 -1.1283 3.0676
65 1 Ar 1.84913 3.10617 1.88085 0 0 0 2.0651 -0.2277 1.5618
66 1 Ar 2.55019 3.94687 1.57693 0 0 0 0.2425 -0.5708 0.1952
67 1 Ar 2.61808 3.47383 2.82130 0 0 0 0.1666 -0.7123 -0.6190
68 1 Ar 1.70199 4.25198 2.63378 0 0 0 0.7701 -1.7507 -1.3040
69 1 Ar 1.69780 3.37908 3.35283 0 0 0 0.8452 0.2964 0.1557
70 1 Ar 2.42696 4.24045 3.38675 0 0 0 -1.7773 -0.1760 -1.6656
71 1 Ar 2.56816 3.62031 4.14353 0 0 0 1.1108 1.6855 -2.3646
72 1 Ar 1.66312 4.23234 4.19834 0 0 0 -2.2290 -0.6954 -0.2796
73 1 Ar 3.24824 4.66890 4.80184 0 -1 -1 0.7098 0.3847 -0.5326
74 1 Ar 3.86549 0.70279 5.02963 0 0 -1 -1.3376 1.2272 -1.5157
75 1 Ar 4.35211 4.92339 0.82293 0 -1 0 -1.2601 -1.7160 1.0766
76 1 Ar 3.51078 0.96924 0.93507 0 0 0 0.7942 -0.3234 0.1148
77 1 Ar 3.39806 0.14318 1.55549 0 0 0 1.7984 2.7005 2.0132
78 1 Ar 4.40760 0.72253 1.70503 0 0 0 -0.9854 -1.2402 0.1227
79 1 Ar 4.17247 0.27145 2.61551 0 0 0 -1.0419 1.2887 1.0226
80 1 Ar 3.15479 1.04493 2.66970 0 0 0 1.1745 -0.1448 2.8308
81 1 Ar 3.10673 0.20288 3.24327 0 0 0 -0.5396 0.2131 -0.7781
82 1 Ar 3.73817 0.98381 3.55162 0 0 0 -1.5088 -0.3009 0.8167
83 1 Ar 3.94530 0.07971 4.25579 0 0 0 -2.9250 -0.0841 -2.2881
84 1 Ar 2.88012 0.73816 4.06811 0 0 0 0.4453 0.7604 0.4478
85 1 Ar 3.42982 1.78909 4.93506 0 0 -1 -0.4086 -0.5451 -0.9219
86 1 Ar 4.14861 2.72639 4.94529 0 0 -1 0.0672 -0.4248 0.9869
87 1 Ar 4.18752 1.72319 1.12654 0 0 0 0.8408 1.3280 3.0658
88 1 Ar 3.44538 3.06476 0.71452 0 0 0 0.5097 2.2150 -0.4487
89 1 Ar 3.55397 1.38574 1.83467 0 0 0 -0.3264 -0.5325 0.6833
90 1 Ar 4.22454 2.43684 1.90923 0 0 0 -0.6412 0.7744 0.3014
91 1 Ar 4.20805 1.35275 2.55590 0 0 0 -1.5457 -1.4448 1.3984
92 1 Ar 3.27917 2.56504 2.62520 0 0 0 -1.3355 0.0367 0.4266
93 1 Ar 3.44329 1.95492 3.39067 0 0 0 0.2502 -0.2523 0.8047
94 1 Ar 4.20032 2.77559 3.25593 0 0 0 -1.8587 -1.6136 -0.0907
95 1 Ar 4.36919 2.01338 3.99256 0 0 0 0.1676 -0.4724 1.2864
96 1 Ar 3.19607 2.61641 4.41818 0 0 0 -0.8324 -0.3486 1.4446
97 1 Ar 3.29594 3.69082 4.98592 0 0 -1 0.1283 0.6002 0.0198
98 1 Ar 4.31990 4.28853 4.94183 0 0 -1 -0.3867 1.7117 -0.9471
99 1 Ar 4.58573 3.31534 0.57423 0 0 0 -0.6102 -1.1694 0.4213
100 1 Ar 3.41039 4.10632 0.89393 0 0 0 -2.1798 -1.4855 0.4609
101 1 Ar 3.29567 3.17390 1.74026 0 0 0 -0.1477 0.7301 -1.7521
102 1 Ar 4.31964 3.85814 1.39317 0 0 0 -1.8283 -1.1553 -1.9324
103 1 Ar 4.23105 3.46157 2.32702 0 0 0 -0.1481 2.3321 -0.8214
104 1 Ar 3.45292 4.20646 2.05369 0 0 0 0.8119 -2.0631 1.0250
105 1 Ar 3.35525 3.39495 3.51226 0 0 0 0.1765 0.9897 0.0174
106 1 Ar 4.18924 4.28480 3.46553 0 0 0 1.1643 1.4178 -1.5652
107 1 Ar 3.98641 3.33018 4.21093 0 0 0 -3.7657 -1.2511 -1.8416
108 1 Ar 3.27381 4.44663 3.77673 0 0 0 2.5013 -0.1472 -0.2084
ITEM: TIMESTEP
80
ITEM: NUMBER OF ATOMS
108
ITEM: BOX BOUNDS pp pp pp
0.0000000000000000e+00 5.0387885741475218e+00
0.0000000000000000e+00 5.0387885741475218e+00
0.0000000000000000e+00 5.0387885741475218e+00
ITEM: ATOMS id type element x y z ix iy iz vx vy vz
1 1 Ar 0.13675 4.90312 4.62367 0 -1 -1 0.4869 -0.2260 1.0129
2 1 Ar 0.63793 0.77729 0.05585 0 0 0 -0.2338 0.9036 0.5696
3 1 Ar 0.85609 4.94483 0.55111 0 -1 0 0.7236 0.6944 -0.4146
4 1 Ar 5.03704 0.74096 0.78754 -1 0 0 0.3351 0.0197 -1.1925
5 1 Ar 0.28489 4.71854 1.28934 0 -1 0 -0.4864 -1.5848 -1.8639
6 1 Ar 0.83957 0.55827 1.44846 0 0 0 0.0639 2.4709 0.3170
7 1 Ar 1.25407 4.75759 2.77193 0 -1 0 0.9103 0.0864 -0.3670
8 1 Ar 0.24970 0.62669 2.37898 0 0 0 1.1383 0.0332 1.8219
9 1 Ar 0.10613 0.21002 3.25809 0 0 0 0.2942 1.5384 -0.5676
10 1 Ar 1.28990 0.80692 3.02479 0 0 0 -0.7416 -1.9499 -0.8682
11 1 Ar 1.07066 0.02822 4.32790 0 0 0 -0.3140 -0.9802 -0.0919
12 1 Ar 4.69287 0.79749 4.17182 -1 0 0 1.0651 -0.7427 2.4715
13 1 Ar 4.70376 1.57404 0.17466 -1 0 0 -0.5664 -1.2308 -1.0639
14 1 Ar 0.78758 2.41961 0.55485 0 0 0 1.3325 0.3278 1.0621
15 1 Ar 0.84901 1.43238 0.81913 0 0 0 -1.0907 1.3542 -0.3302
16 1 Ar 4.96652 2.46247 1.21372 -1 0 0 -1.1174 0.3905 3.0722
17 1 Ar 0.27091 1.44750 1.70486 0 0 0 0.7554 -0.7293 -1.0029
18 1 Ar 0.84196 2.50735 1.76859 0 0 0 0.8093 -0.5048 -0.1914
19 1 Ar 0.85330 1.53442 2.70582 0 0 0 -0.6793 -1.9591 -0.5747
20 1 Ar 0.07904 2.25941 2.58242 0 0 0 -2.5636 -0.8466 0.5514
21 1 Ar 5.01900 1.54604 3.32499 -1 0 0 0.5993 -0.7444 1.3420
22 1 Ar 0.60176 2.25940 3.67437 0 0 0 0.4709 2.6490 -0.7616
23 1 Ar 0.59147 1.73773 4.70075 0 0 0 -0.6715 0.7328 1.9348
24 1 Ar 4.85481 2.94073 3.62126 -1 0 0 0.1784 -0.2827 0.5379
25 1 Ar 0.32819 3.01264 4.87865 0 0 -1 -0.3833 -0.4259 -0.7842
26 1 Ar 1.10212 4.24511 4.98263 0 0 -1 1.2016 -0.9353 -0.3552
27 1 Ar 1.06634 3.42997 0.81531 0 0 0 -1.2455 1.1059 0.4388
28 1 Ar 0.22073 4.02407 0.57159 0 0 0 0.1322 1.7122 -2.0606
29 1 Ar 0.26640 3.53406 1.54108 0 0 0 -2.9808 -1.8772 1.5394
30 1 Ar 1.66147 4.90992 1.73460 0 0 0 0.8155 -2.1968 0.2212
31 1 Ar 0.90298 3.58874 2.29732 0 0 0 2.3517 2.3846 -2.0403
32 1 Ar 4.64592 4.80651 2.18367 -1 0 0 -1.2674 2.1508 -1.2437
33 1 Ar 0.04246 3.37484 2.78457 0 0 0 -2.2439 -0.4713 0.4156
34 1 Ar 0.56947 3.92168 3.51901 0 0 0 -0.6077 -0.2309 -1.4602
35 1 Ar 0.93446 3.20086 4.13145 0 0 0 0.1370 -0.2919 0.2729
36 1 Ar 4.86517 3.90194 4.17945 -1 0 0 -1.8104 -0.5287 2.4064
37 1 Ar 1.89521 0.13563 0.18795 0 0 0 1.6034 1.1129 -0.9494
38 1 Ar 2.64091 0.96999 0.32007 0 0 0 0.4714 2.6756 2.3614
39 1 Ar 2.97052 0.13636 0.76936 0 0 0 -0.5825 1.3732 1.5090
40 1 Ar 1.87573 0.51834 1.13816 0 0 0 0.0945 0.5611 -1.0030
41 1 Ar 2.73134 4.81334 1.72236 0 -1 0 0.4112 -0.0951 -0.2065
42 1 Ar 2.57297 1.09716 1.81484 0 0 0 0.0104 -0.8667 1.4715
43 1 Ar 2.24035 0.12590 2.52181 0 0 0 0.3506 -0.9305 1.0045
44 1 Ar 1.51202 0.87812 2.05613 0 0 0 -0.6492 0.0118 0.7667
45 1 Ar 1.88444 0.20863 3.67782 0 0 0 2.5164 2.0147 -1.2067
46 1 Ar 2.17513 1.21914 3.22063 0 0 0 -1.6582 1.7815 1.8539
47 1 Ar 2.33007 4.65769 4.47726 0 -1 0 0.6782 -1.3890 0.5679
48 1 Ar 1.56074 1.01271 4.20341 0 0 0 -1.7827 -1.0037 0.9998
49 1 Ar 1.59193 1.70870 0.11413 0 0 0 -1.3888 0.5179 -1.9410
50 1 Ar 2.22445 2.63244 0.13985 0 0 0 0.7427 0.4984 -0.7308
51 1 Ar 2.90249 1.90639 0.63856 0 0 0 1.6768 -0.2097 -1.5121
52 1 Ar 1.65061 2.49553 0.85721 0 0 0 1.9809 -0.3435 -0.9335
53 1 Ar 1.79192 1.70151 1.34706 0 0 0 -0.8484 -1.2277 -0.8166
54 1 Ar 2.65050 2.20200 1.59731 0 0 0 0.7983 0.2421 1.0431
55 1 Ar 1.88346 1.85745 2.31470 0 0 0 -0.1486 -0.6165 -0.5604
56 1 Ar 1.39435 2.70255 2.78481 0 0 0 -1.2535 -0.2111 0.0751
57 1 Ar 1.55514 1.96094 3.40370 0 0 0 0.8152 -0.5687 -1.7947
58 1 Ar 2.63258 2.68237 3.45417 0 0 0 1.4032 -0.3805 0.4265
59 1 Ar 2.54460 1.75368 4.50661 0 0 0 0.0962 2.0024 -1.4275
60 1 Ar 1.78924 2.42799 4.26652 0 0 0 0.1475 -0.1674 1.2713
61 1 Ar 1.66574 3.43644 4.92821 0 0 -1 0.2159 0.2326 -0.0793
62 1 Ar 2.23885 4.17509 0.38708 0 0 0 -0.9993 0.1798 0.1342
63 1 Ar 2.52538 3.10775 0.94690 0 0 0 1.0208 -1.9841 0.2196
64 1 Ar 1.45710 3.86827 1.57678 0 0 0 -0.6255 0.8080 -1.2815
65 1 Ar 1.76975 2.75629 1.69740 0 0 0 -1.4916 -2.6730 -1.2023
66 1 Ar 2.47383 3.77733 1.63717 0 0 0 0.5753 0.0747 -0.9111
67 1 Ar 2.74622 3.35487 2.50409 0 0 0 0.6265 -0.8598 0.4024
68 1 Ar 1.90102 4.10874 2.56987 0 0 0 -0.7396 1.7073 0.3721
69 1 Ar 1.83143 3.34290 3.30186 0 0 0 -0.0785 1.2058 -0.3266
70 1 Ar 2.42171 4.29752 3.29735 0 0 0 1.9528 -1.4835 2.1774
71 1 Ar 2.36596 3.56004 4.16907 0 0 0 -2.5798 -1.8439 0.9557
72 1 Ar 1.61118 4.23263 3.93425 0 0 0 0.9073 1.4141 0.4020
73 1 Ar 3.29043 4.86255 4.68432 0 -1 -1 -1.6851 -0.3654 -1.7992
74 1 Ar 3.77102 0.68514 4.69400 0 0 -1 1.3331 0.6243 -1.1936
75 1 Ar 4.04167 4.84351 0.95649 0 -1 0 -1.5577 1.7384 -0.0050
76 1 Ar 3.57943 0.92846 0.81975 0 0 0 0.7811 0.6037 -0.2378
77 1 Ar 3.38544 0.42595 2.15515 0 0 0 -1.1013 1.7265 2.5494
78 1 Ar 4.47935 0.65468 1.69832 0 0 0 -1.5251 -0.2334 1.1046
79 1 Ar 3.96557 0.28429 2.96251 0 0 0 1.1303 1.3651 1.6320
80 1 Ar 3.02966 1.17316 2.91334 0 0 0 0.1902 -0.1666 0.4142
81 1 Ar 3.06452 0.09450 3.15261 0 0 0 0.2456 0.5836 0.6704
82 1 Ar 3.87982 1.20385 3.71202 0 0 0 -1.0452 0.8694 -0.7159
83 1 Ar 3.96763 5.02860 3.94040 0 -1 0 1.5384 -0.6721 -0.4967
84 1 Ar 2.89519 0.70479 4.07685 0 0 0 0.0183 -1.1302 -1.8450
85 1 Ar 3.42940 1.70724 4.86347 0 0 -1 -0.2152 -1.0157 -0.6207
86 1 Ar 4.21763 2.39112 0.00748 0 0 0 1.4854 0.8631 0.7607
87 1 Ar 4.38599 1.65708 1.36687 0 0 0 0.7290 -0.7978 -0.0865
88 1 Ar 3.52606 2.91675 0.55505 0 0 0 -1.7292 -1.5637 -0.4774
89 1 Ar 3.41614 1.58665 1.87125 0 0 0 -0.8818 2.8373 -2.4816
90 1 Ar 4.06368 2.52739 2.10723 0 0 0 0.9303 -1.5698 -0.2416
91 1 Ar 4.01192 1.34261 2.61714 0 0 0 0.7198 0.1069 -0.9071
92 1 Ar 3.16645 2.44348 2.55234 0 0 0 -1.5349 -2.9230 -0.7652
93 1 Ar 3.20485 2.02236 3.72573 0 0 0 -1.9124 0.7635 2.1711
94 1 Ar 4.03505 2.56109 3.14685 0 0 0 -0.8950 -1.3624 -0.9582
95 1 Ar 4.42718 1.83065 4.23346 0 0 0 1.3610 -0.3997 0.5467
96 1 Ar 2.97983 2.70310 4.44120 0 0 0 -0.2308 0.8245 -0.5949
97 1 Ar 3.19756 3.74853 4.85275 0 0 -1 -0.5977 0.5340 0.4410
98 1 Ar 4.31250 4.42692 4.87070 0 0 -1 0.4513 -0.6267 0.2435
99 1 Ar 4.48575 3.29041 0.42619 0 0 0 -0.5079 0.2337 -1.6754
100 1 Ar 3.08307 3.98506 0.92596 0 0 0 0.3365 -0.0771 -0.9711
101 1 Ar 3.31449 3.17377 1.70921 0 0 0 -0.6609 -1.6127 0.6259
102 1 Ar 4.06651 3.81931 1.37419 0 0 0 0.2355 -0.4400 0.6200
103 1 Ar 4.26969 3.59267 2.32104 0 0 0 -1.0067 1.8254 0.0777
104 1 Ar 3.32198 4.33040 2.31840 0 0 0 -0.5917 1.1676 2.1819
105 1 Ar 3.60666 3.56324 3.08887 0 0 0 4.4081 1.0148 -0.1093
106 1 Ar 4.38607 4.41337 3.21094 0 0 0 1.6827 -2.2334 -1.5793
107 1 Ar 3.98882 3.18155 4.18940 0 0 0 1.0111 -0.6626 -0.4769
108 1 Ar 3.31952 4.22654 3.91445 0 0 0 0.0235 -1.2042 0.3151
ITEM: TIMESTEP
120
ITEM: NUMBER OF ATOMS
108
ITEM: BOX BOUNDS pp pp pp
0.0000000000000000e+00 5.0387885741475218e+00
0.0000000000000000e+00 5.0387885741475218e+00
0.0000000000000000e+00 5.0387885741475218e+00
ITEM: ATOMS id type element x y z ix iy iz vx vy vz
1 1 Ar 0.14674 4.98828 4.78295 0 -1 -1 0.0566 1.1793 0.2061
2 1 Ar 0.74176 0.87271 5.03107 0 0 -1 1.0000 -0.3567 0.7518
3 1 Ar 1.17847 0.04389 0.44443 0 0 0 1.5604 -1.0315 -1.8575
4 1 Ar 4.83326 0.50491 0.96878 -1 0 0 -1.0471 -1.8519 1.4696
5 1 Ar 0.03403 4.54114 1.34495 0 -1 0 -1.1566 -0.7889 0.1308
6 1 Ar 0.86507 0.56275 1.32926 0 0 0 0.3963 -0.0644 0.2895
7 1 Ar 0.94733 4.70879 2.71206 0 -1 0 -1.1403 2.7398 -0.1279
8 1 Ar 0.45546 0.56302 2.32078 0 0 0 -0.0152 -1.1999 -0.1921
9 1 Ar 0.23025 0.17811 3.65081 0 0 0 2.1023 -2.3768 1.4598
10 1 Ar 1.07812 0.78061 3.40852 0 0 0 -2.2002 0.6272 -0.1671
11 1 Ar 1.06531 0.10292 4.26192 0 0 0 -0.4692 1.0166 -0.0884
12 1 Ar 4.97970 0.87362 4.32348 -1 0 0 -0.5199 3.0216 -0.9369
13 1 Ar 4.56462 1.26143 0.12665 -1 0 0 0.1865 -0.3278 -1.1673
14 1 Ar 0.46461 2.48504 0.69030 0 0 0 -0.6972 -0.5530 -0.0724
15 1 Ar 0.69109 1.49589 0.70086 0 0 0 -1.1250 0.2123 0.6180
16 1 Ar 4.84307 2.52913 1.34636 -1 0 0 -1.3442 2.1366 0.4584
17 1 Ar 0.17387 1.44897 1.75091 0 0 0 -0.8296 -1.5579 1.2236
18 1 Ar 0.82445 2.32806 1.68516 0 0 0 1.9682 -0.1310 -1.6390
19 1 Ar 0.82294 1.78374 2.64869 0 0 0 1.4919 1.0994 1.1233
20 1 Ar 4.91834 2.17225 2.80793 -1 0 0 1.0924 0.1210 2.3204
21 1 Ar 0.06167 1.21511 3.44688 0 0 0 0.8940 -0.9182 -1.6912
22 1 Ar 0.73775 2.47479 3.49755 0 0 0 2.8316 -1.5685 0.0495
23 1 Ar 0.36478 2.01433 4.78854 0 0 0 -0.3865 -0.2553 -0.2920
24 1 Ar 4.90139 2.83936 3.77057 -1 0 0 -0.7637 0.2559 -1.0871
25 1 Ar 0.13590 2.98294 4.76691 0 0 -1 0.2489 1.2262 -0.4175
26 1 Ar 1.19749 4.22198 4.81885 0 0 -1 0.8847 -0.0196 -0.2958
27 1 Ar 0.69501 3.47746 0.62616 0 0 0 -0.1189 -1.2775 1.1984
28 1 Ar 0.15549 4.10730 0.12389 0 0 0 -0.5720 2.4684 0.0816
29 1 Ar 4.86608 3.54990 1.78032 -1 0 0 0.2771 0.9794 0.2505
30 1 Ar 1.58280 4.98288 1.80565 0 0 0 -1.5848 0.0109 -0.9145
31 1 Ar 0.97504 3.67857 2.32466 0 0 0 -0.0822 -0.2161 -2.2600
32 1 Ar 4.46230 4.81869 2.17121 -1 0 0 -0.6441 1.1006 -0.4986
33 1 Ar 4.96392 3.14852 2.73849 -1 0 0 -0.8632 -0.7874 0.5949
34 1 Ar 0.64376 3.89229 3.34224 0 0 0 0.0796 -2.1880 0.0835
35 1 Ar 1.06085 3.52922 4.12331 0 0 0 -0.7090 0.9450 1.4554
36 1 Ar 4.87393 3.90732 4.28914 -1 0 0 1.3457 2.9672 -3.8685
37 1 Ar 2.09169 0.38328 4.82757 0 0 -1 0.7041 0.9626 -2.9085
38 1 Ar 2.46180 1.25700 0.37608 0 0 0 -1.6430 0.9917 -1.0867
39 1 Ar 2.86937 0.25268 0.64947 0 0 0 0.1409 0.0308 -1.9342
40 1 Ar 1.90155 0.40687 1.00967 0 0 0 -0.1460 -1.6888 0.4221
41 1 Ar 2.76446 4.82035 1.80078 0 -1 0 0.5481 0.1452 0.4460
42 1 Ar 2.52032 0.96318 1.96734 0 0 0 0.3696 -0.0315 -0.0614
43 1 Ar 2.27387 0.14092 2.64489 0 0 0 0.6766 0.6826 1.0605
44 1 Ar 1.41750 0.81643 2.28123 0 0 0 -1.4202 0.3369 1.8123
45 1 Ar 2.14181 4.98629 3.77977 0 -1 0 -0.0529 -1.4955 2.1718
46 1 Ar 2.20672 1.26791 3.54203 0 0 0 0.2014 -0.2496 -0.0275
47 1 Ar 2.29508 4.32980 4.49098 0 -1 0 -0.8070 -0.0192 -0.1866
48 1 Ar 1.50666 1.10927 4.19994 0 0 0 2.1550 2.0499 0.2758
49 1 Ar 1.42163 1.74255 4.98755 0 0 -1 -1.7383 -0.0249 0.5925
50 1 Ar 2.62217 2.62528 5.01792 0 0 -1 1.0444 -0.4487 0.1078
51 1 Ar 3.03281 2.05613 0.69810 0 0 0 -0.0694 1.7109 -1.1796
52 1 Ar 1.76180 2.29882 0.70680 0 0 0 0.4733 -1.2304 1.0784
53 1 Ar 1.57388 1.58900 1.35526 0 0 0 -1.3179 -0.1617 1.9911
54 1 Ar 2.48833 2.05806 1.61786 0 0 0 -1.6585 -1.8142 -0.7587
55 1 Ar 1.95282 1.79590 2.44316 0 0 0 0.0786 -0.8231 -0.6561
56 1 Ar 0.80161 2.79999 2.63383 0 0 0 -2.4740 -0.5362 -0.1698
57 1 Ar 1.60837 2.03288 3.32361 0 0 0 0.8773 0.2718 0.6564
58 1 Ar 2.45071 2.69737 3.43963 0 0 0 -2.2214 -2.2054 -1.2007
59 1 Ar 2.32443 1.62150 4.42388 0 0 0 0.3301 -0.6277 0.7027
60 1 Ar 1.52425 2.50439 4.22481 0 0 0 -0.8761 -0.2216 0.0788
61 1 Ar 1.54243 3.08628 0.18512 0 0 0 -0.8262 -0.6693 0.7059
62 1 Ar 2.15816 4.28454 0.41202 0 0 0 1.5374 1.7019 -0.9823
63 1 Ar 2.50371 3.10891 0.88989 0 0 0 -0.9061 0.0736 -2.5028
64 1 Ar 1.50743 3.76846 1.12681 0 0 0 -0.7265 -2.0438 0.3888
65 1 Ar 1.82750 3.05509 2.09534 0 0 0 0.4172 3.1211 1.7132
66 1 Ar 2.68056 3.77111 1.60672 0 0 0 2.3228 0.6602 0.2583
67 1 Ar 2.84998 3.41883 2.59625 0 0 0 1.5040 -0.4083 -0.3025
68 1 Ar 2.06529 4.12358 2.44982 0 0 0 0.0669 1.9279 -0.2059
69 1 Ar 1.62996 3.40896 3.15275 0 0 0 -1.7697 -2.3821 -1.3714
70 1 Ar 2.56248 4.10124 3.46323 0 0 0 0.3275 -1.4242 -0.6250
71 1 Ar 2.18030 3.37717 4.26081 0 0 0 -2.1837 -0.2572 0.7997
72 1 Ar 1.41034 4.36584 3.71408 0 0 0 0.3035 2.8118 -1.5661
73 1 Ar 3.28198 4.95907 4.69531 0 -1 -1 -2.0951 0.1454 -0.2270
74 1 Ar 4.04441 0.62054 4.62087 0 0 -1 1.4771 -1.1681 0.2550
75 1 Ar 3.86052 0.07754 0.99442 0 0 0 -0.2442 0.5098 0.6498
76 1 Ar 3.72525 1.07061 0.64797 0 0 0 -1.4006 -0.4456 -2.0775
77 1 Ar 3.40699 0.37223 2.32794 0 0 0 -0.0956 -1.9765 1.5451
78 1 Ar 4.11787 0.75249 1.70677 0 0 0 -0.2803 0.6584 -1.2602
79 1 Ar 4.50077 0.49708 2.85457 0 0 0 2.7571 -0.3255 -2.2307
80 1 Ar 3.12071 1.10307 3.12779 0 0 0 0.9225 -2.4496 1.4296
81 1 Ar 3.26092 0.12158 3.41722 0 0 0 1.8735 1.3979 2.6874
82 1 Ar 4.04923 1.06803 3.72726 0 0 0 2.2636 -0.1529 1.3868
83 1 Ar 4.37118 4.81287 4.01063 0 -1 0 2.2345 -1.0155 0.5255
84 1 Ar 3.05927 0.91945 4.21285 0 0 0 1.3564 2.2064 2.3498
85 1 Ar 3.68293 1.75125 4.80535 0 0 -1 0.5919 0.8531 0.5655
86 1 Ar 4.39836 2.38805 0.06296 0 0 0 0.9926 -0.8248 1.3218
87 1 Ar 4.53625 1.60054 0.98523 0 0 0 0.4501 -0.1456 -2.9132
88 1 Ar 3.59463 3.10328 0.27522 0 0 0 -0.9404 0.7108 -0.8670
89 1 Ar 3.47229 1.64699 1.51020 0 0 0 0.3539 -2.2464 0.8161
90 1 Ar 3.99513 2.32321 2.13394 0 0 0 -0.4128 0.0181 1.3973
91 1 Ar 4.27412 1.45786 2.48460 0 0 0 0.5315 -1.0014 -0.0610
92 1 Ar 2.88416 2.13669 2.57584 0 0 0 -0.2906 1.7380 0.1944
93 1 Ar 3.23389 1.97065 3.81036 0 0 0 -1.2907 -0.5711 -0.0980
94 1 Ar 3.86940 2.26461 3.12918 0 0 0 -0.0595 -1.0912 -0.0220
95 1 Ar 4.61956 1.92434 4.17538 0 0 0 -0.5485 0.1941 -1.2594
96 1 Ar 3.11198 2.91718 4.16147 0 0 0 0.7288 0.6936 -1.0800
97 1 Ar 2.96567 3.72678 4.88617 0 0 -1 -2.0856 -0.6378 0.2954
98 1 Ar 3.99899 4.51844 0.20112 0 0 0 -0.8748 0.7855 2.1164
99 1 Ar 4.40262 3.50891 0.12498 0 0 0 1.4952 0.2804 -2.0514
100 1 Ar 3.20183 4.21372 0.78701 0 0 0 -1.2675 2.2804 0.1551
101 1 Ar 3.35884 2.95558 1.67849 0 0 0 -1.0929 0.8343 -1.1909
102 1 Ar 4.19554 3.88097 1.11803 0 0 0 0.8904 1.2772 0.3686
103 1 Ar 3.99322 3.91053 2.18250 0 0 0 -1.8238 -0.6003 -0.9943
104 1 Ar 3.33588 4.25625 2.75123 0 0 0 -0.8723 -0.7874 1.8831
105 1 Ar 4.06534 3.30380 3.24803 0 0 0 1.8780 -2.3448 -0.8659
106 1 Ar 4.81293 4.29729 2.97228 0 0 0 0.3961 1.0507 -0.8352
107 1 Ar 4.11151 3.09328 4.40836 0 0 0 -1.4915 -2.0337 2.4277
108 1 Ar 3.75078 4.03924 4.21535 0 0 0 2.5839 0.8315 1.9357
ITEM: TIMESTEP
160
ITEM: NUMBER OF ATOMS
108
ITEM: BOX BOUNDS pp pp pp
0.0000000000000000e+00 5.0387885741475218e+00
0.0000000000000000e+00 5.0387885741475218e+00
0.0000000000000000e+00 5.0387885741475218e+00
ITEM: ATOMS id type element x y z ix iy iz vx vy vz
1 1 Ar 5.01408 0.42459 4.72598 -1 0 -1 -1.0322 1.8424 -0.0831
2 1 Ar 0.80934 0.95896 0.09122 0 0 0 -1.5368 -0.6221 0.6458
3 1 Ar 1.32578 0.13605 0.36402 0 0 0 0.4575 1.5008 -0.8760
4 1 Ar 4.89992 0.40209 0.93590 -1 0 0 0.2516 0.9510 -1.8929
5 1 Ar 0.19376 4.53202 1.30164 0 -1 0 1.9137 1.2776 0.9909
6 1 Ar 0.86777 0.39894 1.10573 0 0 0 -0.0028 -2.5120 -2.2032
7 1 Ar 0.88836 4.91424 2.69289 0 -1 0 -0.1206 -0.7622 -0.1139
8 1 Ar 0.33063 0.35618 2.01500 0 0 0 -2.0480 -1.0231 -1.9133
9 1 Ar 0.53566 4.88610 3.64242 0 -1 0 1.9252 0.4571 0.7094
10 1 Ar 1.10920 0.66051 3.43447 0 0 0 3.6234 -2.3175 -0.5003
11 1 Ar 1.38024 0.17732 4.29332 0 0 0 1.9880 -1.2078 -0.3989
12 1 Ar 0.42697 1.14529 3.90403 0 0 0 0.7466 1.8028 -0.8935
13 1 Ar 4.57968 1.30784 0.06153 -1 0 0 -0.6370 -0.0045 0.4819
14 1 Ar 0.56501 2.43008 0.52019 0 0 0 0.6528 0.8519 0.0627
15 1 Ar 0.45437 1.44187 1.01442 0 0 0 -0.7450 0.0709 0.2266
16 1 Ar 4.46434 2.91825 1.42048 -1 0 0 -1.6350 1.5049 -1.5190
17 1 Ar 0.06526 1.47445 1.97786 0 0 0 0.6978 2.1523 1.8349
18 1 Ar 1.11104 2.45653 1.36362 0 0 0 0.7743 0.9044 -1.0583
19 1 Ar 0.91090 1.70945 2.64297 0 0 0 0.3071 0.6624 -1.1629
20 1 Ar 4.90975 2.34657 3.02223 -1 0 0 -0.8683 1.2112 -1.2219
21 1 Ar 0.12431 1.11695 2.86746 0 0 0 -0.1850 -2.5041 -1.3804
22 1 Ar 0.65115 2.28897 3.83303 0 0 0 0.1901 -0.3044 0.5982
23 1 Ar 0.30392 1.86517 4.60499 0 0 0 0.1299 -0.3578 1.0780
24 1 Ar 4.88127 3.07901 3.80659 -1 0 0 -1.0675 0.4615 0.8181
25 1 Ar 0.13429 2.97861 4.82761 0 0 -1 -0.9001 -1.3610 0.8868
26 1 Ar 1.26903 4.02362 4.87856 0 0 -1 -0.7755 -0.9070 1.0060
27 1 Ar 0.41192 3.54652 0.86767 0 0 0 -1.3189 1.1370 0.6529
28 1 Ar 0.48501 4.64682 0.35628 0 0 0 2.4831 2.8687 -0.8783
29 1 Ar 0.00216 3.63907 1.76228 0 0 0 -1.0873 -0.8439 0.3874
30 1 Ar 1.31068 4.82962 1.77877 0 0 0 0.6488 2.5593 -2.3062
31 1 Ar 0.95780 3.92177 1.91507 0 0 0 0.2065 -1.0310 -0.3241
32 1 Ar 4.26351 4.78065 1.88207 -1 0 0 0.5181 -1.8403 0.2416
33 1 Ar 4.62675 3.23592 2.67601 -1 0 0 -3.7684 -0.1354 -0.1704
34 1 Ar 0.66393 3.52080 2.90544 0 0 0 0.5060 0.2303 -2.6281
35 1 Ar 0.98608 3.33238 4.00373 0 0 0 -1.1488 -1.0674 -3.3023
36 1 Ar 0.10603 3.95790 3.83211 0 0 0 0.4622 0.6357 0.3086
37 1 Ar 2.20934 0.70712 4.73279 0 0 -1 -0.2039 1.7310 0.2679
38 1 Ar 2.12370 1.27224 0.58092 0 0 0 -1.4129 0.2471 1.8959
39 1 Ar 2.80706 0.32077 0.40156 0 0 0 -0.0163 -0.2115 0.3337
40 1 Ar 2.04593 0.43869 1.14053 0 0 0 -0.4081 0.9710 2.5137
41 1 Ar 2.74752 5.01616 1.70849 0 -1 0 0.1284 -0.0436 -1.0871
42 1 Ar 2.58762 0.92130 1.89062 0 0 0 0.1974 2.1364 -1.8140
43 1 Ar 2.42185 0.29957 2.58367 0 0 0 1.2302 -0.7269 -0.7667
44 1 Ar 1.50126 0.62665 2.49307 0 0 0 1.5845 -2.3886 -0.0053
45 1 Ar 2.53027 0.19526 3.81561 0 0 0 1.9665 -0.0971 0.8601
46 1 Ar 2.37996 1.13809 3.23350 0 0 0 0.8164 1.2500 -1.5476
47 1 Ar 2.05073 4.40550 4.22370 0 -1 0 -1.7840 0.1606 -1.3776
48 1 Ar 1.38271 1.26092 4.30540 0 0 0 -1.8706 -0.3499 2.5773
49 1 Ar 1.20783 1.80205 0.28190 0 0 0 0.1568 -0.2993 1.8878
50 1 Ar 2.63850 2.77126 4.73291 0 0 -1 1.1165 -0.8887 0.4633
51 1 Ar 3.19576 2.03724 0.76915 0 0 0 0.4267 -2.1532 0.3779
52 1 Ar 1.89203 2.31819 0.78584 0 0 0 2.2718 2.1106 0.0699
53 1 Ar 1.35160 1.26682 1.66710 0 0 0 -0.1132 -0.0120 0.2626
54 1 Ar 2.46483 1.85394 1.50693 0 0 0 -1.6330 0.3195 -0.2429
55 1 Ar 2.07574 1.73461 2.46117 0 0 0 1.1604 0.5743 1.0530
56 1 Ar 0.71803 2.72645 2.28932 0 0 0 -0.4833 -0.4193 -1.8414
57 1 Ar 1.61799 1.78712 3.47118 0 0 0 -0.2951 1.0443 -0.5553
58 1 Ar 2.38260 2.72604 3.25953 0 0 0 0.8686 -0.9509 -1.4681
59 1 Ar 2.29749 1.65323 4.56735 0 0 0 -0.9494 -1.3424 0.5463
60 1 Ar 1.49942 2.29023 4.47462 0 0 0 0.2522 -0.8531 -0.1067
61 1 Ar 1.37731 3.09679 0.19261 0 0 0 -1.2987 -0.2164 0.6505
62 1 Ar 2.09154 4.54306 0.54960 0 0 0 -0.2527 -0.7402 0.4642
63 1 Ar 2.36986 3.19750 0.68407 0 0 0 0.8040 -0.1434 -0.0716
64 1 Ar 1.63887 3.46261 1.27345 0 0 0 -0.2462 -1.0665 0.1728
65 1 Ar 2.09509 3.40558 2.22351 0 0 0 0.6800 0.0338 1.3513
66 1 Ar 2.79880 3.89225 1.74538 0 0 0 -0.6240 0.6323 0.1321
67 1 Ar 3.03507 3.31604 2.59941 0 0 0 -0.4169 0.8969 0.0701
68 1 Ar 2.09321 4.43261 2.51198 0 0 0 0.1788 0.3902 0.9977
69 1 Ar 1.45133 2.84177 3.24480 0 0 0 -0.4719 -3.8852 1.3240
70 1 Ar 2.28991 3.74097 3.42114 0 0 0 -1.9982 0.4833 -3.2789
71 1 Ar 1.97492 3.34267 4.26766 0 0 0 -0.9866 0.2392 0.5081
72 1 Ar 1.47648 4.36554 3.53468 0 0 0 0.9368 -1.9077 -0.5461
73 1 Ar 2.89467 4.80428 4.60600 0 -1 -1 0.6047 -1.6815 1.9371
74 1 Ar 3.95643 0.41346 4.86562 0 0 -1 -0.1545 1.5861 1.0764
75 1 Ar 3.59908 0.20299 1.19470 0 0 0 -1.7343 2.7121 -0.4246
76 1 Ar 3.53835 1.13039 0.46025 0 0 0 0.8987 1.7785 2.1695
77 1 Ar 3.59208 0.21968 2.58378 0 0 0 0.9702 0.2007 -0.7605
78 1 Ar 4.30900 0.84086 1.71245 0 0 0 0.6988 -0.2996 0.5484
79 1 Ar 4.46698 0.26741 2.98481 0 0 0 -2.1100 0.1938 -0.5292
80 1 Ar 3.44127 1.07460 3.09528 0 0 0 -0.1457 0.8987 -0.8421
81 1 Ar 3.59610 0.09220 3.91281 0 0 0 -0.0189 0.2505 0.1152
82 1 Ar 4.25897 0.93764 3.70034 0 0 0 1.8716 -1.0864 0.8385
83 1 Ar 4.65550 4.99260 3.85904 0 -1 0 2.7069 -0.4968 0.5305
84 1 Ar 3.25099 0.92821 4.44360 0 0 0 -1.5225 -0.3562 -2.1915
85 1 Ar 3.60877 1.93128 4.88453 0 0 -1 -1.1871 -0.0961 0.9249
86 1 Ar 4.49716 2.45178 0.32321 0 0 0 -1.5739 1.0316 0.5190
87 1 Ar 4.47872 1.75992 1.23198 0 0 0 -2.0766 1.3427 1.4595
88 1 Ar 3.51894 3.05066 0.42560 0 0 0 1.0883 1.0349 -0.3739
89 1 Ar 3.43735 1.51357 1.70657 0 0 0 2.6056 -0.3308 1.3292
90 1 Ar 3.91524 2.45787 2.24840 0 0 0 0.2879 0.6956 1.1052
91 1 Ar 4.20257 1.40298 2.58283 0 0 0 -0.7639 -0.1223 -0.8857
92 1 Ar 3.03064 2.12472 2.50224 0 0 0 -0.2103 -2.7450 -0.3668
93 1 Ar 2.98778 1.86099 3.67229 0 0 0 -1.5968 0.0573 -0.9215
94 1 Ar 3.85776 1.99929 3.24727 0 0 0 -0.8476 0.6942 0.3653
95 1 Ar 4.61494 1.87108 3.98396 0 0 0 1.6980 -1.7017 -0.3352
96 1 Ar 3.03518 3.26336 3.96313 0 0 0 -0.4001 2.4706 2.5255
97 1 Ar 2.74878 3.80447 4.92994 0 0 -1 0.3239 3.1197 -0.3161
98 1 Ar 4.08712 4.55764 0.33176 0 0 0 0.8910 -0.5786 1.4603
99 1 Ar 4.52785 3.58291 0.24665 0 0 0 0.3077 -0.8174 1.6653
100 1 Ar 3.12725 4.33701 0.82172 0 0 0 -0.6967 -1.5194 -0.8911
101 1 Ar 3.24430 2.84511 1.37920 0 0 0 -0.5375 -0.8089 -0.1283
102 1 Ar 4.07784 4.00169 1.12567 0 0 0 -0.6738 -0.7301 1.7057
103 1 Ar 3.77446 3.61663 2.01025 0 0 0 0.8491 -1.6341 -0.1403
104 1 Ar 3.30425 4.34406 3.20143 0 0 0 -0.3206 -1.3064 2.7895
105 1 Ar 3.71646 3.15589 3.25510 0 0 0 0.9864 -0.6905 -0.9652
106 1 Ar 4.87008 4.37676 2.80069 0 0 0 0.9697 -1.9740 -1.6325
107 1 Ar 4.03734 2.78573 4.42347 0 0 0 0.0965 3.0207 -0.4037
108 1 Ar 3.95354 3.96935 4.42524 0 0 0 -0.2004 -0.9174 -1.1302
ITEM: TIMESTEP
200
ITEM: NUMBER OF ATOMS
108
ITEM: BOX BOUNDS pp pp pp
0.0000000000000000e+00 5.0387885741475218e+00
0.0000000000000000e+00 5.0387885741475218e+00
0.0000000000000000e+00 5.0387885741475218e+00
ITEM: ATOMS id type element x y z ix iy iz vx vy vz
1 1 Ar 4.91174 0.62101 4.66416 -1 0 -1 0.2285 0.4585 -0.5225
2 1 Ar 0.57963 0.90763 0.24534 0 0 0 0.5591 0.4516 1.4068
3 1 Ar 1.58068 0.18667 0.48988 0 0 0 -0.6787 -0.4220 1.7898
4 1 Ar 4.57452 0.58404 0.61380 -1 0 0 -1.1758 0.4831 1.7447
5 1 Ar 0.37648 4.50507 1.40220 0 -1 0 -0.9591 0.9142 -0.2191
6 1 Ar 0.84621 0.46379 1.24065 0 0 0 1.4423 0.4600 2.2738
7 1 Ar 0.80761 4.76486 2.42869 0 -1 0 2.1465 -0.0773 -0.9110
8 1 Ar 0.21200 0.31660 1.97090 0 0 0 -0.7152 0.4851 -0.3697
9 1 Ar 0.67294 5.02905 3.70092 0 -1 0 -1.1458 1.4141 -0.8145
10 1 Ar 1.68652 0.39289 3.32036 0 0 0 -0.3982 -2.6377 -1.0733
11 1 Ar 1.70852 0.14065 4.34397 0 0 0 0.3311 1.3916 1.7666
12 1 Ar 0.57541 1.18077 3.70593 0 0 0 0.9829 -0.7505 0.2386
13 1 Ar 4.60728 1.50974 0.10188 -1 0 0 0.4108 -1.0442 -1.2694
14 1 Ar 0.15416 2.60735 0.86845 0 0 0 -3.1325 0.6061 2.6613
15 1 Ar 0.25718 1.51480 1.06896 0 0 0 -1.1659 0.4873 0.0036
16 1 Ar 4.04982 3.02071 1.18319 -1 0 0 -1.6423 0.4570 -0.8088
17 1 Ar 0.05024 1.86916 1.93452 0 0 0 -1.0979 -0.5144 -1.3639
18 1 Ar 1.30627 2.33132 1.32089 0 0 0 -0.2757 -0.1221 0.8988
19 1 Ar 0.87064 1.77377 2.64873 0 0 0 -2.6557 -0.4074 1.1760
20 1 Ar 4.91093 2.28441 2.86945 -1 0 0 1.1707 0.0360 0.4563
21 1 Ar 0.41304 0.65308 2.88234 0 0 0 2.3593 -1.7096 0.1679
22 1 Ar 0.56221 2.25967 3.80793 0 0 0 0.4059 -0.3567 -0.2606
23 1 Ar 0.42247 1.92719 5.03586 0 0 0 1.0417 2.9773 -0.6393
24 1 Ar 4.73380 2.85328 3.71685 -1 0 0 -0.6319 -1.1471 1.9751
25 1 Ar 0.11550 2.87432 4.61537 0 0 -1 0.3452 -0.3600 -0.3288
26 1 Ar 1.16429 4.06397 4.95380 0 0 -1 0.0645 0.0644 0.1752
27 1 Ar 0.51219 3.62905 0.81837 0 0 0 2.1893 -0.6475 -0.9859
28 1 Ar 0.54383 4.94492 5.00868 0 0 -1 -0.5926 0.5930 -2.2750
29 1 Ar 4.91052 3.57203 1.66956 -1 0 0 -0.4668 -0.8090 -2.0099
30 1 Ar 1.38387 4.68115 1.57873 0 0 0 0.4439 0.0412 -3.5197
31 1 Ar 1.02202 3.72450 1.86047 0 0 0 -0.5595 -2.9435 0.1642
32 1 Ar 4.43134 4.56086 1.94042 -1 0 0 0.9858 -0.3293 -0.8297
33 1 Ar 4.63129 3.36372 2.88807 -1 0 0 -0.5654 1.7392 -1.0232
34 1 Ar 0.55798 3.37112 2.72183 0 0 0 -1.2997 -0.2101 1.2976
35 1 Ar 0.74803 3.19966 3.74171 0 0 0 0.7435 -1.9358 0.2037
36 1 Ar 0.19858 4.07198 3.86864 0 0 0 0.1433 -0.9320 -0.1808
37 1 Ar 2.44505 0.72013 4.65029 0 0 -1 1.3304 -0.2882 0.5481
38 1 Ar 2.31066 1.45979 0.75682 0 0 0 1.3037 0.8169 -0.3463
39 1 Ar 2.65838 0.40978 0.64037 0 0 0 -1.6676 0.7035 -0.3765
40 1 Ar 1.93191 0.49100 1.30456 0 0 0 -1.1176 -0.4297 -0.3938
41 1 Ar 2.64121 4.87189 1.53570 0 -1 0 -1.8876 -1.3249 0.3096
42 1 Ar 2.65851 1.01098 1.85180 0 0 0 -1.2357 -1.0671 0.8759
43 1 Ar 2.68592 0.13155 2.73451 0 0 0 1.0782 -1.9259 -1.1173
44 1 Ar 1.80354 0.57508 2.25109 0 0 0 1.0314 0.6888 0.7271
45 1 Ar 2.58985 0.11707 3.74975 0 0 0 0.4807 -1.2726 1.0111
46 1 Ar 2.51509 1.23423 3.08411 0 0 0 2.2770 2.3443 -0.9344
47 1 Ar 2.21621 4.34222 4.23843 0 -1 0 1.0307 -0.7605 -2.1069
48 1 Ar 1.27198 1.18703 4.61401 0 0 0 1.1461 -0.1520 0.6365
49 1 Ar 1.29172 1.80536 0.53527 0 0 0 1.1945 -0.5558 0.5246
50 1 Ar 2.92781 2.72102 4.92344 0 0 -1 2.3703 1.8983 -0.7240
51 1 Ar 3.01457 2.04547 0.90703 0 0 0 0.0174 1.5298 0.0614
52 1 Ar 2.10199 2.46935 0.46915 0 0 0 -0.8683 -0.2683 -0.3453
53 1 Ar 1.30793 1.37863 1.60837 0 0 0 -0.4457 0.8976 -0.5206
54 1 Ar 2.22246 2.29728 1.60854 0 0 0 0.2041 2.8581 -0.2231
55 1 Ar 1.97376 1.95166 2.54142 0 0 0 0.1356 0.1263 1.3797
56 1 Ar 0.50037 2.77406 2.00376 0 0 0 -0.5360 -0.1187 -3.8488
57 1 Ar 1.55640 1.45001 3.72396 0 0 0 -0.8643 -0.9687 2.0881
58 1 Ar 2.58225 2.59160 2.91610 0 0 0 -0.0122 0.5953 -1.4590
59 1 Ar 2.29238 1.74575 4.74815 0 0 0 -1.0622 -0.0484 2.0548
60 1 Ar 1.38344 2.37048 4.43595 0 0 0 -1.2734 -0.7319 0.0286
61 1 Ar 1.20898 2.96157 0.30016 0 0 0 -1.7337 -0.1362 0.1047
62 1 Ar 2.04296 4.26202 0.70186 0 0 0 -0.3155 -1.4482 1.3383
63 1 Ar 2.68127 3.28454 0.95804 0 0 0 -0.2167 -1.3333 -0.2373
64 1 Ar 1.75609 3.39510 1.13170 0 0 0 0.5923 0.1560 -1.1787
65 1 Ar 1.65829 3.11042 2.18104 0 0 0 -1.2037 -1.6282 -2.8602
66 1 Ar 2.70643 3.78271 1.76859 0 0 0 -0.9663 -0.1700 2.5912
67 1 Ar 3.01243 3.51493 2.72336 0 0 0 0.1624 1.6586 1.1959
68 1 Ar 1.96668 4.51931 2.40832 0 0 0 0.1959 0.0442 0.1615
69 1 Ar 1.32485 2.69656 2.95609 0 0 0 -0.7905 -0.8981 -0.1504
70 1 Ar 2.21439 3.55898 3.41399 0 0 0 -0.7358 -1.1808 2.9108
71 1 Ar 1.76275 3.32454 4.39147 0 0 0 -0.4640 0.6465 0.4632
72 1 Ar 1.30973 4.03213 3.22024 0 0 0 0.7883 -0.5814 0.2654
73 1 Ar 3.21711 4.93034 4.72351 0 -1 -1 -0.9688 -1.2872 -0.4890
74 1 Ar 3.90395 0.61318 4.98774 0 0 -1 -0.4523 3.0142 -0.5904
75 1 Ar 3.49253 0.34064 1.10053 0 0 0 -0.0474 -0.3688 -4.4641
76 1 Ar 3.75661 1.36068 0.77765 0 0 0 0.2223 1.1846 0.2850
77 1 Ar 3.63707 0.09260 2.19072 0 0 0 -0.0395 -1.1368 0.9599
78 1 Ar 4.38495 0.79272 1.65036 0 0 0 2.5882 0.5939 -0.1778
79 1 Ar 4.32928 0.06112 2.84544 0 0 0 -0.1707 -1.3865 0.7552
80 1 Ar 3.53592 0.95998 3.12964 0 0 0 2.6077 -2.3497 -0.5552
81 1 Ar 3.71127 0.08731 3.78002 0 0 0 -1.2286 0.9062 -1.6302
82 1 Ar 4.41565 0.89586 3.75045 0 0 0 -0.5187 1.5482 -2.3994
83 1 Ar 4.64678 4.82399 4.04860 0 -1 0 0.6392 0.7414 0.4403
84 1 Ar 3.23985 1.14114 4.00651 0 0 0 3.4285 0.4634 -1.1529
85 1 Ar 3.55490 1.85844 4.71319 0 0 -1 0.4680 -2.0103 -1.7028
86 1 Ar 4.20083 2.42164 0.25310 0 0 0 -1.1936 1.6881 -0.8585
87 1 Ar 4.36006 2.02776 1.30199 0 0 0 1.0547 -0.0632 -0.0235
88 1 Ar 3.50891 3.34968 0.33414 0 0 0 0.3789 2.2720 0.8210
89 1 Ar 3.62430 1.44815 1.72141 0 0 0 0.0851 1.0889 0.6108
90 1 Ar 3.98725 2.39482 2.27319 0 0 0 0.0405 -0.9402 -0.4075
91 1 Ar 4.45038 1.42509 2.69150 0 0 0 1.0905 -1.3095 1.6525
92 1 Ar 3.08916 1.78946 2.56421 0 0 0 0.4119 -0.4525 -0.0366
93 1 Ar 2.71912 2.03639 3.74262 0 0 0 -1.0077 2.9297 -0.4127
94 1 Ar 3.80502 2.00706 3.37245 0 0 0 -1.2036 -1.1398 0.0320
95 1 Ar 4.63716 1.92835 3.95803 0 0 0 -0.7686 -0.7208 1.6570
96 1 Ar 2.91900 3.35435 4.15080 0 0 0 -2.8165 -2.3700 1.4468
97 1 Ar 2.67087 3.76344 0.05794 0 0 0 -0.5619 -0.9179 2.1014
98 1 Ar 4.25803 4.67877 0.36180 0 0 0 0.7785 0.8303 -0.8420
99 1 Ar 4.58025 3.52732 0.33245 0 0 0 0.9520 -0.1939 -1.3839
100 1 Ar 3.22261 4.33219 0.72682 0 0 0 0.2386 2.4342 -0.5959
101 1 Ar 3.08345 2.73969 1.68872 0 0 0 -0.1318 -2.4752 4.0945
102 1 Ar 4.03780 4.05221 1.17040 0 0 0 0.8669 1.0666 -0.0406
103 1 Ar 3.77306 3.50741 1.99368 0 0 0 1.5741 1.6834 0.8448
104 1 Ar 3.23190 4.29796 3.43130 0 0 0 -0.4899 1.7827 -1.5633
105 1 Ar 3.67913 3.20698 3.54711 0 0 0 0.8434 1.0564 -0.2413
106 1 Ar 4.98152 4.30162 2.73942 0 0 0 -0.4333 0.6400 2.2873
107 1 Ar 3.87475 2.90303 4.51412 0 0 0 -0.3708 -1.2137 -0.1246
108 1 Ar 3.95615 4.21662 4.24409 0 0 0 -0.6429 1.0330 0.2548
ITEM: TIMESTEP
240
ITEM: NUMBER OF ATOMS
108
ITEM: BOX BOUNDS pp pp pp
0.0000000000000000e+00 5.0387885741475218e+00
0.0000000000000000e+00 5.0387885741475218e+00
0.0000000000000000e+00 5.0387885741475218e+00
ITEM: ATOMS id type element x y z ix iy iz vx vy vz
1 1 Ar 4.95207 0.83934 4.66813 -1 0 -1 -0.3748 0.5354 3.0511
2 1 Ar 0.66499 0.75005 0.39687 0 0 0 -0.0367 0.1919 -1.1047
3 1 Ar 1.22047 4.98992 0.42197 0 -1 0 -0.4475 -0.4551 1.6693
4 1 Ar 4.82761 0.63026 0.72067 -1 0 0 1.5237 -0.3649 0.2569
5 1 Ar 0.23623 4.60951 1.12712 0 -1 0 -2.2113 1.6456 -1.7517
6 1 Ar 0.79131 0.52144 1.41834 0 0 0 -0.4419 -0.0350 0.6000
7 1 Ar 0.96857 4.69915 2.30943 0 -1 0 -1.0463 -0.0104 -0.5538
8 1 Ar 0.11161 0.26605 2.12385 0 0 0 -0.8365 0.2941 1.5260
9 1 Ar 0.70466 4.97345 3.71901 0 -1 0 0.8323 -1.4659 -0.9867
10 1 Ar 1.61124 4.89912 3.37005 0 -1 0 2.1318 0.0207 0.9020
11 1 Ar 1.61586 0.09165 4.35422 0 0 0 0.2102 -2.1403 -1.9014
12 1 Ar 0.60781 0.95125 3.85159 0 0 0 1.5903 -0.5159 -0.5915
13 1 Ar 4.58264 1.57885 0.25438 -1 0 0 -1.6937 1.0450 0.5353
14 1 Ar 4.94634 2.82122 0.71365 -1 0 0 2.0316 0.1992 -1.2466
15 1 Ar 0.17356 1.70069 1.03852 0 0 0 3.1409 0.8642 1.1929
16 1 Ar 3.87492 3.10215 1.31093 -1 0 0 1.5471 2.1787 -1.0316
17 1 Ar 0.23938 1.83053 1.94901 0 0 0 4.1284 -0.6411 -0.0391
18 1 Ar 1.18615 2.42858 1.14992 0 0 0 -1.4161 1.5669 0.0372
19 1 Ar 0.67001 1.49705 2.90788 0 0 0 0.0593 -0.0005 1.0369
20 1 Ar 0.07810 2.52414 2.92970 0 0 0 2.5708 -0.3912 0.0734
21 1 Ar 0.89490 0.54382 2.80891 0 0 0 0.8140 -1.9728 1.0323
22 1 Ar 0.49310 2.02528 3.79540 0 0 0 -0.7319 0.3140 1.5089
23 1 Ar 0.48008 1.81208 0.06795 0 0 1 -0.2215 -2.8092 -0.1332
24 1 Ar 4.69781 2.96809 3.76974 -1 0 0 0.2240 1.1682 1.0852
25 1 Ar 0.29607 3.07608 4.57595 0 0 -1 0.8110 -0.1734 0.1755
26 1 Ar 1.19867 4.12828 5.02802 0 0 -1 0.4155 -0.7961 -0.6660
27 1 Ar 0.62395 3.75834 0.74461 0 0 0 -1.2164 0.1073 -0.8690
28 1 Ar 0.49194 4.89668 4.69971 0 0 -1 -1.1223 -0.6179 0.6162
29 1 Ar 4.76581 3.60571 1.49962 -1 0 0 -0.3482 0.5216 0.5430
30 1 Ar 1.26495 4.55269 1.35367 0 0 0 0.1194 -0.7559 0.2755
31 1 Ar 0.69459 3.82561 1.85763 0 0 0 -0.8778 1.0925 1.4566
32 1 Ar 4.56337 4.46020 2.12334 -1 0 0 0.6097 -1.9317 2.0626
33 1 Ar 4.59412 3.42214 2.78185 -1 0 0 0.6723 0.3052 -1.0065
34 1 Ar 0.53319 3.39113 2.92329 0 0 0 1.1926 -0.4033 0.3450
35 1 Ar 1.04183 3.08569 3.93434 0 0 0 0.3390 -0.9888 -0.3644
36 1 Ar 0.23250 3.81101 3.96563 0 0 0 -0.1218 -0.0304 0.8424
37 1 Ar 2.77835 0.95438 4.53841 0 0 -1 -0.8349 1.9620 -0.5915
38 1 Ar 2.44752 1.38083 0.89329 0 0 0 1.9382 -0.8355 -0.0128
39 1 Ar 2.31327 0.24177 0.47229 0 0 0 -1.8192 -1.3677 -0.9754
40 1 Ar 1.91256 0.66347 1.45697 0 0 0 -0.4564 -0.3220 1.0535
41 1 Ar 2.46640 4.76021 1.62060 0 -1 0 -0.1471 0.7727 0.4962
42 1 Ar 2.73197 0.94120 2.08956 0 0 0 -2.5661 -1.6353 2.3526
43 1 Ar 2.63606 0.15833 2.64960 0 0 0 -0.9714 1.8031 -0.0884
44 1 Ar 1.78301 0.75947 2.56284 0 0 0 2.0602 0.8104 0.5205
45 1 Ar 2.49707 0.26241 3.80535 0 0 0 -1.8243 0.1611 -0.2402
46 1 Ar 2.56380 1.05947 3.31951 0 0 0 -1.2570 -1.5192 -0.2792
47 1 Ar 2.37289 4.11954 4.04260 0 -1 0 0.1126 -0.5227 -1.2935
48 1 Ar 1.42615 1.11094 4.74245 0 0 0 0.1267 0.0785 -1.0235
49 1 Ar 1.40068 1.56149 0.63895 0 0 0 0.6522 -2.7941 -0.0428
50 1 Ar 3.01585 2.57819 0.15782 0 0 0 -1.7708 0.6471 1.2789
51 1 Ar 3.38913 2.16178 1.05715 0 0 0 -0.7341 1.5394 0.2240
52 1 Ar 2.03860 2.62942 0.42231 0 0 0 0.5123 0.6675 -1.1269
53 1 Ar 1.29366 1.53728 1.75268 0 0 0 -0.4557 0.5739 1.2624
54 1 Ar 2.48213 2.21652 1.35245 0 0 0 0.6756 -0.4151 0.3905
55 1 Ar 1.77496 1.72432 2.58358 0 0 0 -0.2566 -0.3704 0.5155
56 1 Ar 0.24287 2.81746 2.01932 0 0 0 -1.2041 2.7998 1.7580
57 1 Ar 1.74834 1.50279 3.66733 0 0 0 0.1417 0.7849 -0.3681
58 1 Ar 2.43864 2.68996 2.71103 0 0 0 0.0416 -2.7248 -1.5751
59 1 Ar 2.27191 1.78106 4.79978 0 0 0 1.7256 0.4405 0.0673
60 1 Ar 1.46993 2.23439 4.35146 0 0 0 0.6506 -0.0903 -1.2886
61 1 Ar 1.04159 2.86012 0.18766 0 0 0 -1.0302 -0.1713 0.1225
62 1 Ar 2.10200 4.26938 0.73627 0 0 0 -2.4010 -0.2091 0.2949
63 1 Ar 2.82467 3.40580 1.01194 0 0 0 0.4387 3.0256 0.2738
64 1 Ar 1.56401 3.38306 1.03798 0 0 0 0.4239 2.1913 0.2107
65 1 Ar 1.59587 3.02287 2.27734 0 0 0 -1.8018 0.8568 1.4782
66 1 Ar 2.45075 3.55893 1.93183 0 0 0 -1.0030 -3.0806 -1.4790
67 1 Ar 3.03151 3.66478 2.77870 0 0 0 -0.7941 0.5590 -1.1598
68 1 Ar 2.01329 4.32474 2.57748 0 0 0 0.1071 -1.3348 2.0792
69 1 Ar 1.16518 2.45011 3.10470 0 0 0 -0.6761 -1.3138 0.2831
70 1 Ar 1.78442 3.23216 3.34719 0 0 0 -2.8375 -0.6934 0.0319
71 1 Ar 1.71117 3.29676 4.63981 0 0 0 1.0893 -0.9272 1.0778
72 1 Ar 1.14675 4.02982 3.22952 0 0 0 -2.1468 -1.5867 0.2380
73 1 Ar 2.92956 4.75233 4.64468 0 -1 -1 -1.6025 0.1244 -0.7015
74 1 Ar 3.80083 0.78090 4.64835 0 0 -1 2.9774 -1.0291 -2.2728
75 1 Ar 3.71590 0.37821 0.54817 0 0 0 0.3664 -1.7415 -0.7702
76 1 Ar 3.62437 1.36005 0.49452 0 0 0 -2.1192 -0.7258 -1.6803
77 1 Ar 3.63494 4.87357 1.77005 0 -1 0 -0.2803 -1.2251 -4.2015
78 1 Ar 4.53259 1.07066 1.71889 0 0 0 0.4662 -0.8653 -0.7418
79 1 Ar 4.43800 0.04851 2.99993 0 0 0 0.6365 0.1644 -2.1609
80 1 Ar 3.64845 0.77860 2.40986 0 0 0 0.1294 0.7108 -2.7903
81 1 Ar 3.75535 0.10667 3.93430 0 0 0 0.1074 -0.2885 2.9513
82 1 Ar 4.51160 0.82659 3.69518 0 0 0 0.4043 -0.8606 0.6170
83 1 Ar 4.65767 4.81541 4.04701 0 -1 0 1.0458 -2.4003 1.3760
84 1 Ar 3.41984 1.12778 3.74281 0 0 0 0.5646 0.2710 -1.1414
85 1 Ar 3.63217 1.89044 4.64025 0 0 -1 -1.1267 -2.4569 -2.1498
86 1 Ar 4.06154 2.53069 0.25269 0 0 0 -0.4825 1.3203 0.0384
87 1 Ar 4.36487 2.04014 1.29418 0 0 0 2.3671 1.0145 1.6634
88 1 Ar 3.61990 3.83763 0.15334 0 0 0 -1.1252 0.7743 -1.3064
89 1 Ar 3.44700 1.47486 1.67228 0 0 0 -0.4126 0.1670 -0.2468
90 1 Ar 4.35493 2.27179 2.33064 0 0 0 -0.0475 -0.3050 -0.1203
91 1 Ar 4.68336 1.17247 2.78676 0 0 0 0.8939 -1.2799 1.1209
92 1 Ar 3.00998 1.76668 2.69691 0 0 0 -1.6090 -0.4457 0.5411
93 1 Ar 2.51644 2.34293 3.79707 0 0 0 -1.6266 -1.3182 -0.7952
94 1 Ar 3.81677 2.07851 3.52024 0 0 0 2.0028 3.1120 1.1719
95 1 Ar 4.57035 1.85899 4.18903 0 0 0 0.6769 0.9563 -0.5525
96 1 Ar 2.86004 3.18346 4.27286 0 0 0 1.6927 -0.0360 -0.8955
97 1 Ar 2.50393 3.67483 0.01007 0 0 0 0.7597 0.6036 1.5685
98 1 Ar 4.37884 4.77514 5.01533 0 0 -1 0.6082 0.3109 -2.4574
99 1 Ar 4.68785 3.72493 0.24179 0 0 0 -0.3136 3.2759 0.2167
100 1 Ar 3.10551 4.59906 0.65711 0 0 0 1.6206 0.5354 1.0392
101 1 Ar 3.32231 2.95520 2.09645 0 0 0 -0.2576 1.9809 2.1323
102 1 Ar 4.20269 4.35279 1.01925 0 0 0 0.2172 3.3389 -0.7342
103 1 Ar 3.69372 3.93896 1.93237 0 0 0 -2.4816 1.5166 -1.7335
104 1 Ar 3.18149 4.49348 3.38299 0 0 0 -0.3647 -0.4866 0.5901
105 1 Ar 3.74501 3.45669 3.54382 0 0 0 -0.0100 1.1594 0.9641
106 1 Ar 0.28982 4.45954 3.02680 1 0 0 1.4505 0.9970 -0.4786
107 1 Ar 3.74164 2.84523 4.34469 0 0 0 -0.3321 0.3917 0.2090
108 1 Ar 3.73916 4.07715 4.29244 0 0 0 -0.3234 -0.5712 -1.3122
ITEM: TIMESTEP
280
ITEM: NUMBER OF ATOMS
108
ITEM: BOX BOUNDS pp pp pp
0.0000000000000000e+00 5.0387885741475218e+00
0.0000000000000000e+00 5.0387885741475218e+00
0.0000000000000000e+00 5.0387885741475218e+00
ITEM: ATOMS id type element x y z ix iy iz vx vy vz
1 1 Ar 0.00535 0.82192 4.83983 0 0 -1 -0.2756 -0.2899 -1.4521
2 1 Ar 0.97059 0.74936 0.24195 0 0 0 1.5595 0.0011 -0.5457
3 1 Ar 1.20454 4.82739 0.60204 0 -1 0 1.7225 -1.2055 -0.7390
4 1 Ar 4.67371 0.65298 0.76604 -1 0 0 -0.7148 0.3208 -0.2334
5 1 Ar 0.32806 4.72123 0.99853 0 -1 0 0.0018 -0.4157 1.3178
6 1 Ar 0.71860 0.59498 1.39969 0 0 0 -0.4920 1.1373 -1.2821
7 1 Ar 1.12122 4.89131 2.36404 0 -1 0 1.0512 0.3831 0.3146
8 1 Ar 0.13995 0.28732 2.18795 0 0 0 -0.0210 -0.8971 0.0461
9 1 Ar 0.68957 4.82895 4.05592 0 -1 0 -0.7717 0.0204 2.7551
10 1 Ar 1.67047 4.97134 3.20647 0 -1 0 -0.7589 0.4360 0.8781
11 1 Ar 1.61334 4.80206 4.63719 0 -1 0 1.1557 -0.3138 1.8640
12 1 Ar 0.71485 0.79878 4.14324 0 0 0 -1.2918 -1.1976 3.6697
13 1 Ar 4.27516 1.73759 0.41713 -1 0 0 -0.6517 -0.4168 1.2050
14 1 Ar 0.12940 2.74448 0.76476 0 0 0 2.1074 0.7492 0.4694
15 1 Ar 0.80432 1.61366 0.92101 0 0 0 1.4350 -0.5029 -0.2995
16 1 Ar 3.96683 3.51145 1.11391 -1 0 0 -0.4291 2.0476 2.7272
17 1 Ar 0.44354 1.96771 2.19844 0 0 0 0.3582 -0.0682 0.0051
18 1 Ar 0.89653 2.61896 1.49492 0 0 0 -1.7889 -1.1927 1.2169
19 1 Ar 0.73419 1.35720 3.02822 0 0 0 -1.1816 0.1396 -1.8647
20 1 Ar 4.95846 2.13283 3.22669 -1 0 0 -2.5856 -1.2575 1.8774
21 1 Ar 0.55899 0.33604 3.17360 0 0 0 -3.7735 -0.6517 1.7433
22 1 Ar 0.59651 2.03370 3.88458 0 0 0 -0.2754 -2.5121 -2.0212
23 1 Ar 0.62084 1.69054 4.94238 0 0 0 1.0179 -0.1461 1.9211
24 1 Ar 4.81066 3.11844 3.70616 -1 0 0 1.1353 0.9153 -1.1968
25 1 Ar 4.95974 2.94001 4.75026 -1 0 -1 -1.8434 -0.3857 -0.1454
26 1 Ar 1.21410 3.86010 4.81937 0 0 -1 -0.9133 -2.4619 -0.4370
27 1 Ar 0.62484 3.76498 0.68639 0 0 0 2.4506 -0.1569 -0.9902
28 1 Ar 0.35919 4.78660 5.01862 0 0 -1 -0.4183 -0.6523 1.4728
29 1 Ar 4.84850 3.93099 1.22851 -1 0 0 1.1294 1.8405 -1.4521
30 1 Ar 1.30302 4.32695 1.45943 0 0 0 0.4754 -0.4212 1.3102
31 1 Ar 0.56372 3.91652 2.10101 0 0 0 -1.2857 0.6742 1.4357
32 1 Ar 4.37485 4.38675 2.13410 -1 0 0 -2.1568 1.4977 -1.0082
33 1 Ar 4.52621 3.24522 2.71412 -1 0 0 0.8110 -2.0752 -0.6106
34 1 Ar 0.49494 3.31114 3.08550 0 0 0 -1.3144 0.7362 0.5741
35 1 Ar 0.92323 2.98263 3.99140 0 0 0 1.9460 0.9052 2.4078
36 1 Ar 0.40722 3.91892 4.00890 0 0 0 -1.6006 1.4797 1.5527
37 1 Ar 2.71911 0.95581 4.46048 0 0 -1 -0.4540 0.1257 0.5097
38 1 Ar 2.59275 0.95488 0.98661 0 0 0 2.4739 -3.2803 0.3642
39 1 Ar 2.15058 0.41369 0.17094 0 0 0 -0.0702 2.8883 -1.5234
40 1 Ar 1.74705 0.41485 1.46503 0 0 0 -0.2405 -2.4955 -0.7035
41 1 Ar 2.47573 4.80211 1.73695 0 -1 0 0.4415 -0.6574 0.5231
42 1 Ar 2.54770 1.19000 1.91955 0 0 0 -1.0249 1.2108 0.9660
43 1 Ar 2.71104 4.92169 2.74501 0 -1 0 0.7286 -0.6635 -1.5044
44 1 Ar 1.53188 0.73898 2.48684 0 0 0 -1.3649 1.6081 -1.9770
45 1 Ar 2.57479 0.10832 3.82866 0 0 0 -0.0531 -2.0950 -0.7634
46 1 Ar 2.46699 0.95561 3.25894 0 0 0 -0.0732 -0.3634 0.0153
47 1 Ar 2.19421 4.09143 3.77403 0 -1 0 2.1312 0.8656 0.0192
48 1 Ar 1.67860 1.11603 4.59673 0 0 0 3.2063 0.1014 1.8958
49 1 Ar 1.69525 1.21529 0.67937 0 0 0 0.6958 -0.1722 -1.4329
50 1 Ar 3.09253 2.96278 0.02077 0 0 0 1.2976 2.3384 -1.1950
51 1 Ar 3.41027 2.55762 1.17236 0 0 0 -0.6364 2.5373 1.0256
52 1 Ar 2.01473 2.63041 0.70645 0 0 0 1.6349 -0.4378 2.7646
53 1 Ar 1.56435 1.50854 1.70149 0 0 0 0.9174 0.0989 0.1963
54 1 Ar 2.22748 2.18193 1.60332 0 0 0 -0.8146 -1.8490 0.2631
55 1 Ar 1.93973 1.65095 2.61982 0 0 0 1.4327 -1.0483 -0.4061
56 1 Ar 0.05761 2.83425 1.95827 0 0 0 -0.8771 0.4576 -0.0383
57 1 Ar 1.57130 1.40435 3.59817 0 0 0 1.1386 -0.5643 0.2108
58 1 Ar 2.47656 2.65885 2.58848 0 0 0 1.3115 -0.0416 1.0678
59 1 Ar 2.45600 2.03107 4.90431 0 0 0 0.7291 0.3608 0.2224
60 1 Ar 1.54358 2.24344 4.45164 0 0 0 0.3925 -1.1957 1.2575
61 1 Ar 0.98488 2.77876 0.14087 0 0 0 -0.5527 0.0696 -1.7312
62 1 Ar 2.03287 4.33962 0.66133 0 0 0 0.2893 -0.6221 0.1333
63 1 Ar 2.86108 3.42819 0.99399 0 0 0 -1.7481 -2.9969 -1.2462
64 1 Ar 1.43423 3.40207 1.12487 0 0 0 -1.6586 -0.8542 -1.6109
65 1 Ar 1.23834 3.12278 2.19989 0 0 0 -0.3168 0.1787 -0.0188
66 1 Ar 2.17986 3.29329 1.76626 0 0 0 0.2948 1.8692 -0.4701
67 1 Ar 2.91218 3.73917 2.70528 0 0 0 -2.2457 -0.2622 -1.2542
68 1 Ar 1.73657 3.91600 2.58057 0 0 0 -3.2432 -1.0938 -2.0504
69 1 Ar 1.27592 2.42269 3.22694 0 0 0 1.5132 0.1002 -0.6411
70 1 Ar 2.04233 3.14715 3.30101 0 0 0 1.7323 -0.2503 1.6522
71 1 Ar 1.95089 3.17566 4.40589 0 0 0 0.2521 -0.2530 -2.3043
72 1 Ar 1.26812 4.01851 3.53768 0 0 0 -1.7882 -1.3170 -0.0093
73 1 Ar 2.86880 4.69230 4.80676 0 -1 -1 1.0512 0.7619 -1.1238
74 1 Ar 4.03012 0.99484 4.62408 0 0 -1 1.1556 1.4634 -1.5929
75 1 Ar 3.68098 0.50490 0.47887 0 0 0 -1.7274 0.6773 0.1729
76 1 Ar 3.24512 1.41118 0.19868 0 0 0 -3.0112 2.6653 -0.3533
77 1 Ar 3.35629 0.49464 1.41298 0 0 0 -2.2414 3.9342 -0.6335
78 1 Ar 4.56493 1.16614 1.74343 0 0 0 0.1619 2.2669 1.1085
79 1 Ar 4.16678 0.08055 3.05520 0 0 0 -2.2674 -0.3772 1.7838
80 1 Ar 3.85373 0.66606 2.32321 0 0 0 0.3224 0.6005 0.4989
81 1 Ar 3.61056 0.31931 4.04856 0 0 0 -0.7629 2.4717 -0.3140
82 1 Ar 4.76970 0.66529 3.84781 0 0 0 1.7652 0.8320 0.2042
83 1 Ar 4.65149 4.70657 3.74499 0 -1 0 -1.3743 -1.3084 -0.6410
84 1 Ar 3.73102 1.06883 3.29183 0 0 0 2.0491 -1.0648 -2.7617
85 1 Ar 3.36218 1.84886 4.22617 0 0 -1 -1.0203 2.6047 -2.3087
86 1 Ar 4.26206 2.76850 0.33817 0 0 0 1.0855 0.6273 0.5930
87 1 Ar 4.62026 2.23116 1.38325 0 0 0 -1.6381 -2.0632 1.0644
88 1 Ar 3.70360 3.74685 0.18711 0 0 0 0.3420 -0.0333 -0.9339
89 1 Ar 3.50106 1.59699 1.47478 0 0 0 1.2202 -0.4888 -0.9720
90 1 Ar 4.23696 2.20365 2.48732 0 0 0 0.1549 -1.6085 -1.5274
91 1 Ar 4.80320 1.14305 2.79666 0 0 0 -0.2120 0.5565 0.1665
92 1 Ar 3.22102 1.75421 2.70810 0 0 0 2.3059 0.9045 -0.5524
93 1 Ar 2.34931 2.16154 3.58016 0 0 0 -0.1725 -0.5733 -1.1756
94 1 Ar 3.97851 2.46668 3.37876 0 0 0 -0.4710 -0.3567 0.5680
95 1 Ar 4.50918 1.87529 4.40504 0 0 0 -0.6741 0.0402 1.4092
96 1 Ar 2.88032 3.23861 4.00270 0 0 0 1.3701 -0.0752 -1.7476
97 1 Ar 2.50214 3.75321 4.96246 0 0 -1 -0.5980 -1.3290 -1.5194
98 1 Ar 4.36442 5.00891 4.70159 0 0 -1 -0.1038 1.4186 -1.9330
99 1 Ar 4.74226 3.94862 0.11388 0 0 0 0.8598 -0.7373 -1.6872
100 1 Ar 2.97713 4.67694 0.73359 0 0 0 -0.0561 2.0037 1.6482
101 1 Ar 3.48869 2.80727 2.29840 0 0 0 0.9771 -0.8663 0.2067
102 1 Ar 4.08305 4.56384 0.88577 0 0 0 -1.6931 0.2110 0.3815
103 1 Ar 3.42169 4.06996 1.93797 0 0 0 0.6060 2.0653 1.1110
104 1 Ar 3.25578 4.35230 3.63056 0 0 0 1.4442 -1.4636 2.1411
105 1 Ar 3.62009 3.41150 3.22458 0 0 0 -0.7582 0.1958 0.8049
106 1 Ar 0.27266 4.41533 3.03201 1 0 0 1.2940 -1.1436 0.5518
107 1 Ar 3.93243 2.93252 4.39161 0 0 0 -0.1733 0.7566 -1.2438
108 1 Ar 3.83598 3.91799 4.28525 0 0 0 1.5259 -1.9284 -0.0859
ITEM: TIMESTEP
320
ITEM: NUMBER OF ATOMS
108
ITEM: BOX BOUNDS pp pp pp
0.0000000000000000e+00 5.0387885741475218e+00
0.0000000000000000e+00 5.0387885741475218e+00
0.0000000000000000e+00 5.0387885741475218e+00
ITEM: ATOMS id type element x y z ix iy iz vx vy vz
1 1 Ar 4.99294 0.93347 5.03304 -1 0 -1 0.7886 1.0523 0.7136
2 1 Ar 1.01411 0.64884 0.31601 0 0 0 0.0296 0.4760 1.0968
3 1 Ar 1.28058 4.62874 0.54004 0 -1 0 0.4844 -0.8910 -1.3970
4 1 Ar 4.47487 0.54814 0.96203 -1 0 0 -1.9936 -2.2321 -0.1847
5 1 Ar 0.40355 4.79648 1.37833 0 -1 0 0.2366 -1.8045 0.9933
6 1 Ar 0.69678 0.81019 1.33341 0 0 0 1.3985 -0.2468 0.7191
7 1 Ar 0.96450 4.87057 2.40117 0 -1 0 -0.5622 -1.9116 0.4803
8 1 Ar 0.13073 0.27572 2.23510 0 0 0 -0.7256 2.0711 0.8028
9 1 Ar 0.77768 4.79221 4.26815 0 -1 0 0.5471 -0.7794 0.4147
10 1 Ar 1.46164 0.02199 3.50056 0 0 0 -2.0860 0.3746 1.1598
11 1 Ar 1.85100 4.56634 4.38283 0 -1 0 1.2575 1.6108 -3.7888
12 1 Ar 1.06919 0.78275 4.28031 0 0 0 1.0544 -2.5842 0.2281
13 1 Ar 4.19597 1.46748 0.44035 -1 0 0 0.7628 -1.5727 -0.9049
14 1 Ar 0.20468 3.03563 0.74155 0 0 0 -0.8748 0.6125 -0.8087
15 1 Ar 0.62712 1.69907 0.73028 0 0 0 -2.3852 0.9666 -1.0280
16 1 Ar 3.83945 3.63850 1.60892 -1 0 0 0.4574 -0.0690 1.0338
17 1 Ar 0.28979 1.86724 2.16482 0 0 0 0.4042 -0.2814 -0.4666
18 1 Ar 1.00940 2.34025 1.39498 0 0 0 0.6669 -1.7213 -2.1077
19 1 Ar 0.81479 1.23943 3.04843 0 0 0 1.9987 -0.3195 1.1166
20 1 Ar 4.71508 1.92745 3.47850 -1 0 0 -0.2304 0.0990 1.2363
21 1 Ar 0.27505 0.29715 3.26065 0 0 0 0.6179 -0.0645 1.5196
22 1 Ar 0.58716 1.78150 3.83348 0 0 0 -2.4372 1.7706 -2.2281
23 1 Ar 0.63004 1.71438 4.74910 0 0 0 -1.1458 -0.4694 -2.5953
24 1 Ar 4.66524 3.06194 3.65654 -1 0 0 0.5691 -1.1040 -0.6806
25 1 Ar 0.12781 2.96900 4.72980 0 0 -1 1.1688 0.7698 0.9871
26 1 Ar 1.26921 3.76058 4.67312 0 0 -1 -0.9042 -2.2089 0.5225
27 1 Ar 0.61657 3.94946 0.52085 0 0 0 -0.1765 -0.6260 0.3037
28 1 Ar 0.09894 4.89583 0.26522 0 0 0 -2.1924 2.1050 1.0070
29 1 Ar 4.80507 3.83462 1.18048 -1 0 0 -1.3996 1.1727 1.4261
30 1 Ar 1.34963 4.13949 1.44410 0 0 0 -1.9811 -1.8224 -0.5774
31 1 Ar 0.31257 4.03124 2.02283 0 0 0 -0.6337 0.9847 -0.6408
32 1 Ar 4.31472 4.72397 1.95838 -1 0 0 -1.2852 0.4673 -1.0267
33 1 Ar 4.59844 2.89777 2.64253 -1 0 0 3.1691 -1.9286 -2.1892
34 1 Ar 0.49422 3.18876 2.92775 0 0 0 -1.4489 -0.5529 -0.5049
35 1 Ar 0.68014 2.85821 3.78796 0 0 0 -3.0216 -1.6985 -2.6561
36 1 Ar 0.35787 3.79230 4.16789 0 0 0 1.9286 -0.0604 -0.9903
37 1 Ar 2.85173 1.13102 4.41074 0 0 -1 0.1227 1.6234 -0.0451
38 1 Ar 2.61471 0.95759 0.98069 0 0 0 -1.1342 2.0004 0.5270
39 1 Ar 2.33049 0.23855 5.02941 0 0 -1 1.0263 -0.5700 -0.0590
40 1 Ar 1.65550 0.24891 1.31657 0 0 0 -0.5843 1.6662 -0.2060
41 1 Ar 2.19783 4.55393 1.77755 0 -1 0 -2.5373 -0.6801 1.9937
42 1 Ar 2.73930 1.02662 2.03156 0 0 0 1.0724 -1.3575 0.9216
43 1 Ar 2.82550 4.87226 2.82307 0 -1 0 -2.1093 1.1864 1.2908
44 1 Ar 1.48308 0.74767 2.42968 0 0 0 2.4346 -0.1128 -0.0775
45 1 Ar 2.47961 0.07588 3.77409 0 0 0 -1.1588 -0.2969 0.9047
46 1 Ar 2.66255 0.95432 3.13398 0 0 0 1.6461 1.1725 -1.4081
47 1 Ar 2.32066 3.93828 3.80317 0 -1 0 0.0835 -0.7851 -1.6386
48 1 Ar 1.92323 1.16651 4.69806 0 0 0 0.8730 -0.6867 0.7674
49 1 Ar 1.78296 1.49909 0.56939 0 0 0 -1.7985 -2.2870 -0.9767
50 1 Ar 3.23598 2.82587 4.99057 0 0 -1 1.5108 -1.5111 0.3696
51 1 Ar 3.38532 2.64435 1.33528 0 0 0 -1.5117 -0.8964 -0.1749
52 1 Ar 2.18447 2.42220 0.78126 0 0 0 1.9979 2.4935 1.2071
53 1 Ar 1.52785 1.45127 1.61093 0 0 0 1.2889 0.4044 0.1323
54 1 Ar 2.51367 2.11896 1.78933 0 0 0 1.5840 -0.7484 -0.8034
55 1 Ar 2.01119 1.67066 2.60150 0 0 0 -0.1909 -1.4409 -1.6743
56 1 Ar 0.04355 3.04377 1.72110 0 0 0 0.7126 -0.3928 0.3662
57 1 Ar 1.67880 1.28610 3.56472 0 0 0 1.5060 -0.4485 -1.2828
58 1 Ar 2.73591 2.63680 2.72083 0 0 0 1.3530 0.9505 1.9127
59 1 Ar 2.40080 2.25673 4.84469 0 0 0 -0.4806 -2.4514 0.6803
60 1 Ar 1.35495 2.26685 4.24799 0 0 0 0.5446 0.5735 -2.7318
61 1 Ar 0.99474 2.76078 0.13342 0 0 0 1.6677 0.1426 1.5769
62 1 Ar 2.13438 4.23920 0.83401 0 0 0 -0.4294 0.9558 -0.3114
63 1 Ar 2.80720 3.32776 0.60744 0 0 0 0.7587 -0.0240 0.2879
64 1 Ar 1.41135 3.16409 0.99197 0 0 0 -0.2182 0.5134 -1.1097
65 1 Ar 1.18928 2.83445 2.24723 0 0 0 1.5024 -0.0908 0.2775
66 1 Ar 2.17302 3.53059 1.57138 0 0 0 -0.0044 -0.2382 -1.8621
67 1 Ar 2.53867 3.98146 2.60014 0 0 0 0.7127 2.1305 -0.1318
68 1 Ar 1.47232 4.00511 2.66180 0 0 0 -1.2202 -0.6930 1.6319
69 1 Ar 1.37355 2.42788 3.14945 0 0 0 -2.0915 -1.3073 1.1549
70 1 Ar 2.01763 3.13681 3.25279 0 0 0 -1.2041 -0.0480 0.3956
71 1 Ar 1.97352 3.09063 4.32845 0 0 0 -0.8374 2.3400 -1.4338
72 1 Ar 1.31364 3.85058 3.67732 0 0 0 1.6251 -0.4403 1.2222
73 1 Ar 3.17347 4.83561 4.63400 0 -1 -1 1.9852 0.2558 0.5664
74 1 Ar 3.78622 1.27919 4.55503 0 0 -1 -1.7080 2.2077 -0.0876
75 1 Ar 3.46800 0.61506 0.20016 0 0 0 -0.5365 -0.0864 -1.4257
76 1 Ar 3.14851 1.67352 0.43592 0 0 0 -0.8429 1.7679 0.8034
77 1 Ar 3.51431 0.47556 1.55399 0 0 0 2.7415 -0.9410 1.1917
78 1 Ar 4.91475 1.03097 1.70813 0 0 0 1.8681 0.3601 0.6138
79 1 Ar 3.80576 4.91692 2.99832 0 -1 0 1.8239 -1.3213 -2.4245
80 1 Ar 4.07160 0.64873 2.47312 0 0 0 0.3001 -0.6356 0.5169
81 1 Ar 3.50841 0.41546 3.85348 0 0 0 0.8937 -0.3791 -0.4720
82 1 Ar 4.65432 1.06633 3.96387 0 0 0 0.3427 1.3990 1.3617
83 1 Ar 4.59362 4.65147 3.57104 0 -1 0 -0.9370 1.8330 -1.3431
84 1 Ar 3.78508 1.39106 3.48732 0 0 0 -1.7889 3.8470 1.7679
85 1 Ar 3.18415 2.09489 4.26119 0 0 -1 1.2909 -0.7066 2.5480
86 1 Ar 4.04811 3.03710 0.55670 0 0 0 -1.3933 2.9261 -1.2220
87 1 Ar 4.48965 2.37440 1.28072 0 0 0 1.6034 0.8325 0.7160
88 1 Ar 3.67850 3.95516 0.36891 0 0 0 -2.4141 1.1231 0.8670
89 1 Ar 3.56653 1.57306 1.40205 0 0 0 -0.7718 -0.4145 0.7780
90 1 Ar 4.38023 1.96172 2.38290 0 0 0 -1.0483 -0.3234 0.4988
91 1 Ar 4.92796 1.07709 2.85799 0 0 0 0.1115 0.6442 -0.0236
92 1 Ar 3.33401 1.75598 2.50594 0 0 0 -1.2557 -2.1558 -2.2055
93 1 Ar 2.25102 2.15699 3.59711 0 0 0 -2.1024 0.7347 0.5693
94 1 Ar 3.69628 2.49625 3.16910 0 0 0 -1.0796 0.9875 -0.7073
95 1 Ar 4.69156 1.95230 4.54898 0 0 0 1.7752 -2.3855 0.7174
96 1 Ar 3.02083 3.13977 3.97995 0 0 0 0.1044 -0.3924 -0.2606
97 1 Ar 2.51235 3.91081 4.82589 0 0 -1 1.7980 0.7960 1.1655
98 1 Ar 4.22646 0.08235 4.54856 0 1 -1 -0.9954 0.1641 -0.2375
99 1 Ar 4.66825 3.75854 0.27080 0 0 0 -0.6622 -0.9532 1.2393
100 1 Ar 2.87611 4.86690 0.82200 0 0 0 -1.2938 -1.3299 -1.8920
101 1 Ar 3.62420 2.95269 2.28949 0 0 0 -0.1757 1.4716 -0.3042
102 1 Ar 4.02904 4.75094 1.00888 0 0 0 0.8012 0.9203 0.8892
103 1 Ar 3.31442 4.38442 2.07815 0 0 0 0.6581 1.4103 0.6815
104 1 Ar 3.39658 4.34317 3.81977 0 0 0 -0.1758 -0.3924 1.9971
105 1 Ar 3.76623 3.65439 3.21989 0 0 0 0.4039 1.6051 -0.5758
106 1 Ar 0.45161 4.25528 3.15855 1 0 0 1.7037 -1.7161 -0.1715
107 1 Ar 3.95788 2.73187 4.31861 0 0 0 0.5807 -1.2063 -0.3171
108 1 Ar 4.20433 3.69717 4.36459 0 0 0 -0.1729 -0.1766 1.5028
ITEM: TIMESTEP
360
ITEM: NUMBER OF ATOMS
108
ITEM: BOX BOUNDS pp pp pp
0.0000000000000000e+00 5.0387885741475218e+00
0.0000000000000000e+00 5.0387885741475218e+00
0.0000000000000000e+00 5.0387885741475218e+00
ITEM: ATOMS id type element x y z ix iy iz vx vy vz
1 1 Ar 0.02335 0.90138 4.97727 0 0 -1 -1.5776 -0.1168 -1.3378
2 1 Ar 0.91142 0.60847 0.37054 0 0 0 -0.3212 0.2431 0.9350
3 1 Ar 1.30161 4.73387 0.16521 0 -1 0 0.4078 -0.8739 1.4222
4 1 Ar 4.46961 0.61176 1.03621 -1 0 0 0.9652 -0.2797 0.3276
5 1 Ar 0.47331 5.00495 1.19623 0 -1 0 0.9036 2.7473 -0.8187
6 1 Ar 0.69872 0.94669 1.54994 0 0 0 -1.2111 1.5321 1.5120
7 1 Ar 0.91360 4.85770 2.37862 0 -1 0 -1.9842 1.4923 -0.4104
8 1 Ar 0.10906 0.33626 2.57719 0 0 0 0.6536 1.0598 2.4208
9 1 Ar 0.55968 4.54938 4.48866 0 -1 0 -2.9872 -0.9039 0.6549
10 1 Ar 1.52143 5.02666 3.21866 0 -1 0 2.7186 -0.9355 -1.6292
11 1 Ar 1.77836 4.61479 4.36589 0 -1 0 0.1366 1.0963 -1.9482
12 1 Ar 0.96648 0.45234 4.29861 0 0 0 -1.1001 -1.5657 0.4268
13 1 Ar 4.14501 1.66548 0.60284 -1 0 0 -1.8003 2.7630 0.8481
14 1 Ar 0.09098 2.79653 0.73336 0 0 0 0.0047 -0.5319 0.1584
15 1 Ar 0.09483 1.80865 0.70366 0 0 0 -0.0432 0.0140 3.3271
16 1 Ar 3.59126 3.75498 1.54886 -1 0 0 -2.4317 0.9173 0.7293
17 1 Ar 0.60918 2.10231 2.11508 0 0 0 -0.1825 1.3638 -2.4996
18 1 Ar 1.10439 2.27291 1.14879 0 0 0 -0.1979 1.1934 0.3223
19 1 Ar 1.10742 0.93169 2.82885 0 0 0 0.4098 -1.5759 -1.3403
20 1 Ar 4.47444 2.04028 3.40238 -1 0 0 0.5190 -0.1134 -0.0381
21 1 Ar 0.37457 0.32717 3.56762 0 0 0 1.4462 -1.0341 -1.5419
22 1 Ar 0.39162 1.58191 3.78325 0 0 0 1.1860 -0.7044 3.5387
23 1 Ar 0.96489 1.46585 4.65241 0 0 0 -0.2142 -1.3852 0.3147
24 1 Ar 4.65743 3.29753 3.39481 -1 0 0 2.8378 1.2276 -0.3796
25 1 Ar 0.12005 2.98966 4.79484 0 0 -1 -0.7414 -0.1287 1.0468
26 1 Ar 1.16142 3.51723 4.93114 0 0 -1 0.2803 -0.8253 -0.4876
27 1 Ar 0.59129 3.93415 0.70304 0 0 0 1.9890 0.3424 -0.2882
28 1 Ar 4.91847 4.91804 0.37062 -1 0 0 0.5717 -0.1823 0.3562
29 1 Ar 4.92698 4.06177 1.28592 -1 0 0 0.2060 -0.8595 0.3288
30 1 Ar 0.91634 4.00537 1.70993 0 0 0 0.1032 1.4723 2.4529
31 1 Ar 0.10540 4.13396 2.35288 0 0 0 -2.1336 0.6288 1.9592
32 1 Ar 4.52583 4.76486 1.96478 -1 0 0 -0.0049 0.9761 -0.2851
33 1 Ar 4.61522 2.58878 2.48032 -1 0 0 0.4063 0.3614 -0.3564
34 1 Ar 0.70045 3.07850 2.76141 0 0 0 1.4327 -2.5805 1.0886
35 1 Ar 0.61121 2.78482 3.77051 0 0 0 0.5052 -0.5864 -1.5581
36 1 Ar 0.16178 3.74047 4.08274 0 0 0 -3.0975 -0.1504 0.2335
37 1 Ar 2.96328 1.27206 4.27151 0 0 -1 1.2633 1.3286 0.7647
38 1 Ar 2.52879 1.16590 0.98704 0 0 0 0.5102 -0.7910 -1.6503
39 1 Ar 2.28216 0.22055 4.97477 0 0 -1 -0.1560 -0.3906 0.8157
40 1 Ar 2.01696 0.30871 1.17855 0 0 0 1.9899 -1.1186 -1.0878
41 1 Ar 1.89522 4.55133 2.08067 0 -1 0 1.8102 -1.2031 -0.8534
42 1 Ar 2.73667 0.51419 1.82404 0 0 0 0.2190 -1.1865 -2.8796
43 1 Ar 2.59667 0.07464 2.84802 0 0 0 0.4798 -3.1889 1.2889
44 1 Ar 1.78867 0.47946 2.32631 0 0 0 -1.1518 0.5364 -1.5791
45 1 Ar 2.55179 0.20665 3.96157 0 0 0 -0.3467 -2.7438 0.2507
46 1 Ar 2.89896 0.91712 3.13182 0 0 0 0.4648 -2.5628 -0.3774
47 1 Ar 2.50321 4.05590 3.57661 0 -1 0 -1.5045 0.7523 0.1136
48 1 Ar 1.80312 1.00953 4.64496 0 0 0 0.8333 -1.8628 -0.4300
49 1 Ar 1.40678 1.49318 0.61238 0 0 0 -0.9866 -0.3701 -0.7893
50 1 Ar 3.23476 2.88488 0.10013 0 0 0 -0.3380 2.7133 0.8147
51 1 Ar 3.40631 2.58992 1.22263 0 0 0 1.3215 -0.6344 0.6809
52 1 Ar 2.21889 2.55703 0.94963 0 0 0 -1.5662 -0.7203 -0.4181
53 1 Ar 1.70874 1.37687 1.70479 0 0 0 -1.2022 -1.2027 1.8171
54 1 Ar 2.58997 1.92175 1.64301 0 0 0 -0.0428 0.6694 -1.1452
55 1 Ar 2.13367 1.72887 2.69516 0 0 0 0.5684 0.6996 2.2055
56 1 Ar 0.67980 3.05069 1.63375 0 0 0 2.7235 -1.3476 -1.4998
57 1 Ar 2.05156 1.08256 3.63601 0 0 0 -0.9804 -0.5081 1.3757
58 1 Ar 2.72692 2.75517 2.81676 0 0 0 -0.2265 0.6533 -1.6577
59 1 Ar 2.07934 1.94214 4.96022 0 0 0 0.2017 0.1659 0.7806
60 1 Ar 1.42665 2.35898 4.13810 0 0 0 1.8028 0.5707 -1.7330
61 1 Ar 1.24666 2.33032 0.16418 0 0 0 -0.7673 -1.1814 1.0381
62 1 Ar 2.01070 4.08871 0.67785 0 0 0 -0.4102 0.0919 -0.8894
63 1 Ar 2.88108 3.45377 0.91641 0 0 0 -0.6232 0.0846 1.5763
64 1 Ar 1.44497 3.26504 0.86048 0 0 0 -0.1190 -0.8913 -0.0807
65 1 Ar 1.57181 2.85026 2.09414 0 0 0 1.6819 -1.2721 -1.4701
66 1 Ar 2.26871 3.38579 1.76813 0 0 0 -0.3544 -1.0658 0.2457
67 1 Ar 2.63189 3.78270 2.49099 0 0 0 1.8805 -0.5509 0.1948
68 1 Ar 1.45592 3.83902 2.56316 0 0 0 -0.1639 0.1927 -1.3440
69 1 Ar 1.20444 2.09490 2.88310 0 0 0 1.6730 -1.0444 0.2323
70 1 Ar 1.73103 2.91610 3.18902 0 0 0 -1.9178 -1.9063 1.0336
71 1 Ar 2.12438 3.15786 4.31678 0 0 0 0.4718 -1.6787 0.4761
72 1 Ar 1.34190 3.84345 3.78510 0 0 0 -0.5281 -0.5417 -0.2546
73 1 Ar 3.30457 4.93569 4.72271 0 -1 -1 0.0332 2.1436 -0.7131
74 1 Ar 3.94318 1.27993 4.47404 0 0 -1 0.2942 -0.6155 -0.9788
75 1 Ar 3.37658 0.90306 0.30744 0 0 0 -0.4405 2.2006 1.3347
76 1 Ar 3.03755 1.85836 0.55660 0 0 0 -0.2010 -0.0595 0.0354
77 1 Ar 3.66008 0.36661 1.59043 0 0 0 -0.3523 -0.1672 0.3213
78 1 Ar 4.69871 1.38354 1.61997 0 0 0 0.3327 -0.7944 -0.6371
79 1 Ar 3.81981 4.72994 2.87952 0 -1 0 -0.6788 2.1753 0.2058
80 1 Ar 4.05606 0.74301 2.57106 0 0 0 -1.1151 -1.9358 1.2057
81 1 Ar 3.68031 0.47555 3.61501 0 0 0 1.5751 0.3525 -1.0498
82 1 Ar 4.75194 0.87554 4.04237 0 0 0 -1.5764 0.5905 0.2754
83 1 Ar 4.55063 4.74426 3.70540 0 -1 0 -0.4515 -0.7576 1.1264
84 1 Ar 3.50719 1.72848 3.53184 0 0 0 1.1823 2.0807 -0.0097
85 1 Ar 2.94783 2.21931 4.43835 0 0 -1 -0.4579 1.4412 3.3095
86 1 Ar 4.07856 3.27127 0.78464 0 0 0 3.0089 0.5653 0.9887
87 1 Ar 4.47537 2.27507 1.39554 0 0 0 -1.8199 1.3511 0.8082
88 1 Ar 3.62091 3.97812 0.19782 0 0 0 2.6428 -0.8452 -2.5870
89 1 Ar 3.57729 1.38269 1.37708 0 0 0 0.4003 -1.1350 -0.2761
90 1 Ar 4.10108 1.75568 2.31011 0 0 0 -1.9068 1.0264 -0.8966
91 1 Ar 4.90674 1.30483 2.79412 0 0 0 0.7377 -1.0448 -2.5281
92 1 Ar 3.09097 1.76691 2.48054 0 0 0 -0.9418 1.5683 1.2206
93 1 Ar 2.32233 2.19305 3.58563 0 0 0 -1.0872 -1.1356 -1.1364
94 1 Ar 3.66006 2.81785 3.27407 0 0 0 0.5389 -0.4485 0.1299
95 1 Ar 4.91213 2.00277 4.80308 0 0 0 1.9154 0.8247 -0.7076
96 1 Ar 3.03025 3.18468 3.94997 0 0 0 -0.8600 2.4281 1.3553
97 1 Ar 2.43682 4.01764 4.64050 0 0 -1 -0.8157 -0.0890 -1.7315
98 1 Ar 4.34401 0.17359 4.61500 0 1 -1 0.3799 0.4563 0.8890
99 1 Ar 4.66490 4.04514 0.17476 0 0 0 -1.1956 0.0396 -0.9618
100 1 Ar 3.00336 0.05628 0.86827 0 1 0 0.0543 2.1600 1.6998
101 1 Ar 3.55177 2.98938 2.24940 0 0 0 -0.3851 -0.7872 -1.7757
102 1 Ar 4.00609 4.62805 1.04383 0 0 0 0.9056 1.2986 0.2380
103 1 Ar 3.02784 4.60610 1.80847 0 0 0 -3.0436 0.2559 -2.1918
104 1 Ar 3.47690 4.32523 3.88723 0 0 0 0.7624 1.8608 -1.4152
105 1 Ar 3.81388 3.73698 2.93110 0 0 0 -1.8367 1.5127 -2.6235
106 1 Ar 0.56347 4.38680 3.27879 1 0 0 0.0708 2.6316 1.3786
107 1 Ar 4.13913 2.57366 4.30677 0 0 0 -0.7681 0.5354 0.3941
108 1 Ar 4.08803 3.64633 4.38101 0 0 0 0.9348 -2.2756 0.2533
ITEM: TIMESTEP
400
ITEM: NUMBER OF ATOMS
108
ITEM: BOX BOUNDS pp pp pp
0.0000000000000000e+00 5.0387885741475218e+00
0.0000000000000000e+00 5.0387885741475218e+00
0.0000000000000000e+00 5.0387885741475218e+00
ITEM: ATOMS id type element x y z ix iy iz vx vy vz
1 1 Ar 4.89795 1.01516 0.00027 -1 0 0 -0.3788 0.2758 0.7261
2 1 Ar 0.71847 0.64830 0.61937 0 0 0 -1.0895 2.0230 3.2789
3 1 Ar 1.29589 4.78472 0.14325 0 -1 0 0.2132 -0.9355 -1.5768
4 1 Ar 4.53663 0.62167 0.92482 -1 0 0 -0.8371 0.4348 -1.3281
5 1 Ar 0.64214 0.21066 1.47779 0 0 0 -0.3520 1.7792 0.8046
6 1 Ar 0.57161 1.13711 1.89611 0 0 0 -2.0044 0.0377 0.4397
7 1 Ar 0.86100 0.02541 2.42371 0 0 0 -0.9321 -1.4870 2.6048
8 1 Ar 4.89080 0.43747 2.76981 -1 0 0 -0.3636 1.0235 1.9914
9 1 Ar 0.30307 4.65324 4.50407 0 -1 0 0.3004 0.3848 -1.9798
10 1 Ar 1.74188 4.86698 2.92344 0 -1 0 -0.5018 -0.4499 -2.0462
11 1 Ar 1.39056 4.74098 3.93434 0 -1 0 -1.6923 -0.3837 -1.0498
12 1 Ar 0.94146 0.43171 4.58842 0 0 0 0.1263 2.4777 0.8100
13 1 Ar 4.09003 2.20898 0.46994 -1 0 0 0.8636 2.4605 -1.2549
14 1 Ar 0.36267 2.74552 0.90778 0 0 0 1.9361 -0.8015 0.1148
15 1 Ar 0.34981 1.62761 0.94831 0 0 0 0.5131 -1.9113 -1.7641
16 1 Ar 3.66718 3.78282 1.69356 -1 0 0 1.3308 -0.5963 -1.1625
17 1 Ar 0.34371 2.18202 1.81049 0 0 0 -0.4342 0.5959 -2.5681
18 1 Ar 1.20899 2.16507 1.18659 0 0 0 -0.2998 1.6512 0.2580
19 1 Ar 0.92890 0.92937 2.75074 0 0 0 0.2982 0.5892 0.6023
20 1 Ar 4.76026 2.13243 3.46213 -1 0 0 -0.1407 1.7100 1.2813
21 1 Ar 0.73533 0.56679 3.69018 0 0 0 2.2876 0.3008 -0.1705
22 1 Ar 0.51738 1.56276 3.77610 0 0 0 -1.1453 -1.4765 0.1446
23 1 Ar 0.94796 1.44106 4.94682 0 0 0 0.0290 1.1025 0.7943
24 1 Ar 4.94429 3.27186 3.22126 -1 0 0 1.0137 -0.5836 1.1814
25 1 Ar 0.05562 2.98865 4.84323 0 0 -1 -1.5952 0.1704 -0.5407
26 1 Ar 1.19549 3.39706 4.72469 0 0 -1 -0.6082 0.0519 1.6325
27 1 Ar 0.69325 3.93117 0.62086 0 0 0 -1.7584 0.0587 -0.0534
28 1 Ar 0.08653 4.86780 0.60625 0 0 0 0.2632 -2.4759 2.6685
29 1 Ar 4.91421 3.95145 1.55896 -1 0 0 0.9718 -2.3079 1.0319
30 1 Ar 0.82094 4.34390 1.61214 0 0 0 -0.7587 1.2453 -1.7115
31 1 Ar 4.88505 4.30465 2.70323 -1 0 0 0.9912 4.0639 0.3908
32 1 Ar 4.60039 4.82383 1.77396 -1 0 0 -0.0529 0.9337 -1.5339
33 1 Ar 4.77077 2.61907 2.46783 -1 0 0 -0.4045 -0.3857 1.5498
34 1 Ar 0.75163 2.78198 2.52119 0 0 0 0.5558 -0.8711 0.4026
35 1 Ar 0.46921 2.67526 3.84101 0 0 0 -0.4230 -0.1484 1.4287
36 1 Ar 0.14291 3.74322 3.99895 0 0 0 1.5979 -1.3608 -0.0315
37 1 Ar 2.75294 1.21067 4.36796 0 0 -1 -1.0045 -0.7154 0.5058
38 1 Ar 2.53826 0.96832 0.68727 0 0 0 3.4432 -1.5597 -1.3555
39 1 Ar 2.45278 4.88967 0.14813 0 -1 0 0.8291 0.5918 0.5251
40 1 Ar 1.71468 4.93873 1.14140 0 -1 0 -1.9985 -1.5247 1.8467
41 1 Ar 1.73100 4.24579 1.98742 0 -1 0 -0.8115 -1.4335 -0.1650
42 1 Ar 2.73726 0.93772 1.90602 0 0 0 -0.2408 2.6699 1.2260
43 1 Ar 2.73259 4.83116 2.81169 0 -1 0 -0.5272 1.5306 -1.0001
44 1 Ar 1.79881 0.32426 1.98959 0 0 0 0.6590 0.6634 -0.6637
45 1 Ar 2.63287 5.01562 3.84364 0 -1 0 -1.2707 0.6144 -0.4611
46 1 Ar 2.98984 0.78736 3.02645 0 0 0 0.3081 -0.2118 -0.4784
47 1 Ar 2.11344 3.98018 3.60690 0 -1 0 -0.1597 -1.0733 0.1345
48 1 Ar 1.94830 0.74454 4.81878 0 0 0 0.0916 -2.1545 1.5788
49 1 Ar 1.50140 1.21200 0.79082 0 0 0 -1.2787 -1.5406 1.1083
50 1 Ar 3.51937 3.15537 0.11002 0 0 0 3.0842 0.3610 -0.2531
51 1 Ar 3.35026 2.66659 1.21559 0 0 0 -0.1418 2.0924 0.4352
52 1 Ar 2.10424 2.45091 0.75564 0 0 0 0.0228 0.2201 -0.0241
53 1 Ar 1.58212 1.35043 1.76206 0 0 0 0.4714 -3.3236 -1.8489
54 1 Ar 2.60100 1.92868 1.65412 0 0 0 -0.6528 -0.3512 0.9347
55 1 Ar 2.13694 1.32569 2.62376 0 0 0 0.7259 -2.4903 -0.1280
56 1 Ar 0.63256 3.31508 1.70574 0 0 0 -0.7438 0.6951 0.5723
57 1 Ar 1.80223 1.02763 3.52481 0 0 0 -1.5666 -0.5342 -0.4626
58 1 Ar 2.35322 2.67209 2.58539 0 0 0 -1.7183 -2.7048 -0.2064
59 1 Ar 2.00376 1.74801 4.93464 0 0 0 -1.7990 -1.2977 -1.8600
60 1 Ar 1.30821 1.92312 4.16848 0 0 0 0.5859 -2.0759 1.2334
61 1 Ar 0.86266 2.51123 0.03136 0 0 0 0.5495 -0.8074 0.0000
62 1 Ar 2.01803 4.09675 0.57435 0 0 0 -1.9236 -0.4137 -0.0708
63 1 Ar 2.86387 3.58154 0.99462 0 0 0 1.4706 0.1344 1.5172
64 1 Ar 1.45618 3.20645 0.82888 0 0 0 -0.0470 -0.0248 -0.0035
65 1 Ar 1.63674 2.30712 2.21877 0 0 0 -0.9216 -0.1157 1.6121
66 1 Ar 2.02308 3.31148 1.81795 0 0 0 -2.3848 -0.9639 0.5341
67 1 Ar 2.69686 3.69852 2.52871 0 0 0 -0.1259 0.7741 -0.9815
68 1 Ar 1.50598 3.66089 2.75908 0 0 0 -0.1055 -0.5349 1.1524
69 1 Ar 1.01203 1.86019 3.03382 0 0 0 0.2283 1.9193 -0.5903
70 1 Ar 1.74562 2.81886 3.36271 0 0 0 1.3350 -2.6989 1.4878
71 1 Ar 2.10697 2.93306 4.55847 0 0 0 -0.1487 -0.3828 1.1984
72 1 Ar 1.20867 3.63215 3.80125 0 0 0 -2.0251 -1.2316 -0.7048
73 1 Ar 3.24208 0.35843 4.69512 0 0 -1 -0.7706 2.5155 0.1587
74 1 Ar 4.03341 1.30783 4.57180 0 0 -1 1.6570 -2.4836 -0.5841
75 1 Ar 3.54425 1.14982 0.35175 0 0 0 0.7332 1.5203 1.0073
76 1 Ar 2.93350 2.01164 0.36689 0 0 0 0.6300 -1.5167 -1.6959
77 1 Ar 3.60733 0.35153 1.74841 0 0 0 -0.8660 -0.7617 0.3092
78 1 Ar 4.44346 1.14902 1.71690 0 0 0 -1.4623 -1.1540 0.4687
79 1 Ar 3.81448 4.91033 2.67415 0 -1 0 3.0622 1.6153 -2.1591
80 1 Ar 4.01540 1.07599 2.63428 0 0 0 -0.2073 2.6656 1.3747
81 1 Ar 3.75095 0.47278 3.82036 0 0 0 -1.2391 -0.2928 1.3109
82 1 Ar 4.74356 1.04750 3.52513 0 0 0 -0.7769 1.7558 -2.6569
83 1 Ar 4.59917 4.62369 3.80546 0 -1 0 0.1281 0.3199 -0.4134
84 1 Ar 3.54696 1.71970 3.67259 0 0 0 1.0498 -2.5430 0.6087
85 1 Ar 3.03854 2.51694 4.45888 0 0 -1 1.4116 1.2414 -1.3132
86 1 Ar 4.28815 3.36847 0.84068 0 0 0 -1.3307 0.7638 -1.0811
87 1 Ar 4.48241 2.59636 1.43483 0 0 0 0.3510 0.2587 -2.1901
88 1 Ar 3.54436 4.39806 4.91259 0 0 -1 -0.6548 4.0083 -1.6052
89 1 Ar 3.46416 1.40955 1.37533 0 0 0 -0.5180 1.6976 -1.0251
90 1 Ar 4.00559 1.95952 2.21049 0 0 0 0.2230 1.4474 0.2131
91 1 Ar 0.08555 1.67845 2.66659 1 0 0 1.1776 0.8580 1.1180
92 1 Ar 3.06486 1.99187 2.76220 0 0 0 0.0618 0.1823 0.9355
93 1 Ar 2.59846 2.03952 3.76629 0 0 0 -0.6858 -0.8626 -0.9323
94 1 Ar 3.90082 2.92733 3.21877 0 0 0 1.4070 1.0268 -0.1013
95 1 Ar 0.07811 1.97628 4.71438 1 0 0 -0.4542 -0.3176 -0.4077
96 1 Ar 3.09370 3.59109 4.02265 0 0 0 -1.9331 0.8399 -0.9252
97 1 Ar 2.53420 4.08843 4.70629 0 0 -1 0.1544 -0.8979 -0.3785
98 1 Ar 4.32018 0.10206 4.78400 0 1 -1 0.6175 -0.6888 0.8246
99 1 Ar 4.81444 3.95920 0.14584 0 0 0 0.2344 0.9475 0.8728
100 1 Ar 3.31236 0.24800 0.71309 0 1 0 2.8576 0.6233 -1.3709
101 1 Ar 3.60504 2.82862 2.24152 0 0 0 -0.1903 0.6156 1.3397
102 1 Ar 4.12051 4.56010 0.77700 0 0 0 0.2628 -1.1304 -1.6358
103 1 Ar 2.83483 4.60665 1.32105 0 0 0 -1.0022 0.0197 -1.8531
104 1 Ar 3.52193 4.47763 3.81230 0 0 0 1.0221 -0.7071 0.6499
105 1 Ar 4.10870 3.74349 2.64564 0 0 0 2.1168 -2.3492 0.3990
106 1 Ar 0.63142 4.35494 3.38260 1 0 0 0.0820 1.2844 -1.1528
107 1 Ar 3.99474 2.26680 4.39632 0 0 0 1.0552 1.2670 0.7554
108 1 Ar 4.12947 3.38016 4.18457 0 0 0 2.0686 -1.0661 -0.5752
ITEM: TIMESTEP
440
ITEM: NUMBER OF ATOMS
108
ITEM: BOX BOUNDS pp pp pp
0.0000000000000000e+00 5.0387885741475218e+00
0.0000000000000000e+00 5.0387885741475218e+00
0.0000000000000000e+00 5.0387885741475218e+00
ITEM: ATOMS id type element x y z ix iy iz vx vy vz
1 1 Ar 0.04316 1.01131 5.01601 0 0 -1 1.2769 -0.7206 0.1056
2 1 Ar 0.61461 0.36221 0.61485 0 0 0 1.9130 -0.9365 -1.3753
3 1 Ar 1.25191 4.55081 4.99480 0 -1 -1 -0.9075 -0.7485 1.2839
4 1 Ar 4.65310 0.63792 0.80160 -1 0 0 2.3108 0.9799 0.3648
5 1 Ar 0.48983 0.38793 1.60646 0 0 0 -0.6506 0.3987 -0.9081
6 1 Ar 0.15588 1.31547 1.81387 0 0 0 -1.0601 1.1458 -0.4799
7 1 Ar 0.87904 4.95379 2.64465 0 -1 0 0.9599 -0.2294 1.3913
8 1 Ar 0.04341 0.85920 2.81257 0 0 0 1.3300 1.4732 -0.4507
9 1 Ar 0.41938 4.78686 4.38244 0 -1 0 -1.6010 -1.4953 0.3258
10 1 Ar 1.71442 4.60913 3.06080 0 -1 0 0.2933 -0.6788 1.0690
11 1 Ar 1.58464 4.67165 4.06247 0 -1 0 1.3014 -0.1767 0.7559
12 1 Ar 0.86354 0.58555 4.63761 0 0 0 1.0487 1.1973 -1.1024
13 1 Ar 4.19379 2.36522 0.43070 -1 0 0 -1.3377 -1.1656 0.8988
14 1 Ar 0.35164 2.85030 0.73032 0 0 0 0.8562 -0.5519 2.1097
15 1 Ar 5.01556 1.96071 0.81347 -1 0 0 -3.2893 1.4783 0.1595
16 1 Ar 3.67067 3.86786 1.73464 -1 0 0 -1.9518 1.4767 0.8922
17 1 Ar 0.34993 2.43659 1.78783 0 0 0 0.4881 1.0153 1.3083
18 1 Ar 1.29149 2.09521 0.94409 0 0 0 -0.2262 -3.0809 -2.0077
19 1 Ar 1.04193 1.09896 2.55345 0 0 0 -1.2013 -0.0922 -1.5310
20 1 Ar 4.85667 2.35981 3.59262 -1 0 0 2.6815 2.1963 0.0901
21 1 Ar 0.66214 0.27556 3.54852 0 0 0 -1.5775 -0.9813 -1.3828
22 1 Ar 0.52802 1.33127 3.96507 0 0 0 1.6839 -1.5570 0.6233
23 1 Ar 0.86690 1.56450 0.12625 0 0 1 0.8172 0.8849 0.7428
24 1 Ar 0.06824 3.40421 3.47861 0 0 0 0.3886 0.4687 0.9608
25 1 Ar 4.82654 3.00207 4.93849 -1 0 -1 -0.9440 0.9582 -2.8488
26 1 Ar 1.20799 3.55892 4.82094 0 0 -1 2.4860 0.4869 -1.2310
27 1 Ar 0.47245 3.83675 0.69259 0 0 0 -0.9264 -0.0528 0.2169
28 1 Ar 5.02365 4.58782 0.91127 -1 0 0 -2.5640 -1.0548 0.2421
29 1 Ar 4.88007 3.70080 1.59641 -1 0 0 1.5418 -1.0300 -0.9180
30 1 Ar 0.68939 4.18501 1.76628 0 0 0 0.2154 0.5022 3.2990
31 1 Ar 4.95539 4.42712 2.46042 -1 0 0 2.0828 0.4737 -1.7677
32 1 Ar 4.49186 0.04945 1.66486 -1 1 0 -0.4707 -1.9321 1.2498
33 1 Ar 4.68771 2.64274 2.50510 -1 0 0 0.3285 -1.0329 0.1751
34 1 Ar 0.68425 2.91075 2.76568 0 0 0 0.1262 -0.3211 0.4744
35 1 Ar 0.66691 2.53817 4.27307 0 0 0 0.6831 -0.8780 1.2900
36 1 Ar 0.40538 3.73777 4.36778 0 0 0 1.5879 -0.4628 0.7797
37 1 Ar 2.51736 1.25562 4.28992 0 0 -1 -1.3667 -0.5607 0.2866
38 1 Ar 2.77714 0.97761 0.72583 0 0 0 -0.4838 1.8372 2.0409
39 1 Ar 2.60108 4.86919 0.20687 0 -1 0 -1.1477 -0.8953 -0.9505
40 1 Ar 1.39689 4.89502 1.00577 0 -1 0 -0.9559 1.0633 -1.1881
41 1 Ar 1.76031 4.19049 1.93890 0 -1 0 0.0893 0.1001 -1.1098
42 1 Ar 2.88125 1.05586 1.93567 0 0 0 0.0637 0.9990 0.5289
43 1 Ar 2.93433 4.88446 2.51152 0 -1 0 3.1920 -0.7709 -0.7302
44 1 Ar 2.05765 0.21649 2.09507 0 0 0 -0.2791 -0.0880 -0.6463
45 1 Ar 2.37740 0.15338 3.82422 0 0 0 0.0992 1.2175 -0.1914
46 1 Ar 2.89825 0.79629 3.12184 0 0 0 -2.0777 -0.2943 0.9051
47 1 Ar 2.04754 3.91494 3.60380 0 -1 0 0.2932 -2.0679 0.8241
48 1 Ar 1.87696 0.43715 4.87429 0 0 0 0.0919 -1.1638 -1.6292
49 1 Ar 1.70315 1.00431 0.75362 0 0 0 0.7662 -1.8096 1.0749
50 1 Ar 3.75702 3.40502 4.78593 0 0 -1 0.0905 2.6612 -1.2695
51 1 Ar 3.47905 2.77340 1.28921 0 0 0 0.2010 1.9439 0.2481
52 1 Ar 2.33750 2.46040 0.69611 0 0 0 1.7592 0.6733 -0.0022
53 1 Ar 1.60641 1.10415 1.68670 0 0 0 0.4462 -1.7342 -0.4507
54 1 Ar 2.35259 2.15196 1.78857 0 0 0 1.2518 -2.1537 0.1109
55 1 Ar 2.04422 1.20056 2.70910 0 0 0 -0.8540 -1.4380 -2.4250
56 1 Ar 0.80439 3.22193 1.75340 0 0 0 -0.4496 0.2960 0.3163
57 1 Ar 1.70100 0.88804 3.82452 0 0 0 -0.3597 -1.5268 1.9657
58 1 Ar 2.48121 2.73280 2.72987 0 0 0 -0.7381 0.8113 1.5108
59 1 Ar 1.96525 1.75823 0.03944 0 0 1 0.3549 1.3729 1.6003
60 1 Ar 1.41667 1.76770 4.32143 0 0 0 0.3093 -0.4684 2.9308
61 1 Ar 1.25622 2.55811 0.02849 0 0 0 0.1974 0.0917 1.3878
62 1 Ar 1.91954 3.97506 0.59655 0 0 0 0.8113 0.1602 0.4920
63 1 Ar 2.84072 3.68591 1.05647 0 0 0 -0.6739 -0.1291 -0.3128
64 1 Ar 1.37039 3.17760 0.87187 0 0 0 0.6694 0.1060 -0.5409
65 1 Ar 1.18467 2.06995 2.20065 0 0 0 -1.9266 0.2776 -0.6374
66 1 Ar 1.77014 2.85016 1.87063 0 0 0 -0.7488 0.2843 0.7843
67 1 Ar 2.62878 3.88835 2.35667 0 0 0 -0.8480 1.1465 -0.6745
68 1 Ar 1.57451 3.48308 2.67051 0 0 0 1.1641 -0.8508 -1.4394
69 1 Ar 1.12434 2.00664 3.14832 0 0 0 0.0626 0.0962 2.0262
70 1 Ar 1.86192 2.80350 3.78768 0 0 0 2.0654 1.5178 1.6390
71 1 Ar 2.11149 2.84795 4.76985 0 0 0 3.0324 0.5171 0.3213
72 1 Ar 1.05429 3.33618 3.70057 0 0 0 -0.0620 -0.1880 -0.1424
73 1 Ar 3.31625 0.81725 4.74175 0 0 -1 1.5577 2.1166 -0.9503
74 1 Ar 4.26665 0.83589 4.42547 0 0 -1 -0.5581 -2.2644 -0.5022
75 1 Ar 4.14705 1.40758 0.29331 0 0 0 3.1692 1.1501 -0.9356
76 1 Ar 3.01182 1.94248 5.02132 0 0 -1 1.2798 -0.2946 -1.7714
77 1 Ar 3.46445 0.18005 1.58179 0 0 0 -0.3806 -1.5569 -1.0029
78 1 Ar 4.23486 0.95878 1.75519 0 0 0 -1.2650 0.4596 -3.2855
79 1 Ar 3.99215 0.23337 2.54880 0 0 0 -1.3209 0.1032 0.6882
80 1 Ar 3.94299 1.15142 2.68756 0 0 0 0.3159 1.4125 2.0399
81 1 Ar 3.62270 0.28883 3.69957 0 0 0 -0.3269 -1.5882 -1.0871
82 1 Ar 4.55881 1.33152 3.59288 0 0 0 -0.6031 -0.0654 0.0599
83 1 Ar 4.67589 4.76089 3.55661 0 -1 0 0.8237 1.1150 -1.3754
84 1 Ar 3.40379 1.45870 3.85477 0 0 0 -2.4175 0.4559 1.6940
85 1 Ar 3.10581 2.59701 4.24960 0 0 -1 -2.0050 -1.2523 -1.4872
86 1 Ar 4.35862 3.34550 0.68390 0 0 0 0.9665 -1.3204 -1.1089
87 1 Ar 4.49309 2.63659 1.39972 0 0 0 0.6228 0.9049 1.9587
88 1 Ar 3.42360 4.62128 4.70373 0 0 -1 0.9543 -0.9800 -1.7149
89 1 Ar 3.37132 1.75283 1.22368 0 0 0 -1.7505 -0.7509 -2.4304
90 1 Ar 3.96556 2.05642 2.03505 0 0 0 -0.3132 0.2106 0.5467
91 1 Ar 0.19229 1.80521 2.90435 1 0 0 0.7307 2.1706 0.4721
92 1 Ar 3.21449 1.95913 2.84792 0 0 0 0.3839 1.7571 -0.6664
93 1 Ar 2.38435 1.78475 3.36381 0 0 0 -0.7212 1.1291 -0.7835
94 1 Ar 3.71631 2.81584 3.33707 0 0 0 -1.3564 -1.6954 -0.5212
95 1 Ar 5.01739 1.97684 4.69154 0 0 0 -0.7379 0.7966 0.9237
96 1 Ar 3.04087 3.44403 3.54986 0 0 0 -0.8862 0.5565 -3.0857
97 1 Ar 2.37363 3.90016 4.72471 0 0 -1 -0.7593 -0.6326 -0.4309
98 1 Ar 4.58888 0.04584 4.94223 0 1 -1 1.4759 0.3081 0.9612
99 1 Ar 4.64391 4.13726 4.95918 0 0 -1 -1.9873 0.2373 -0.5072
100 1 Ar 3.48476 0.20917 0.58180 0 1 0 -1.0734 0.5205 -0.5971
101 1 Ar 3.34550 3.15035 2.39579 0 0 0 -0.0519 0.7691 0.4971
102 1 Ar 4.07641 4.38846 0.74569 0 0 0 -0.8657 -0.3231 1.1367
103 1 Ar 2.58945 4.70099 1.43089 0 0 0 -1.4741 0.6186 3.3993
104 1 Ar 3.62199 4.28531 3.71713 0 0 0 0.0333 -1.8095 -1.2026
105 1 Ar 4.41528 3.54445 2.54128 0 0 0 -1.1685 -1.5896 0.6988
106 1 Ar 0.55389 4.20962 3.52295 1 0 0 0.3244 -0.2397 0.2171
107 1 Ar 4.04612 2.43390 4.40421 0 0 0 -1.0956 -0.2608 -0.9445
108 1 Ar 4.36056 3.57119 4.00939 0 0 0 -1.2519 2.8414 -0.3616
ITEM: TIMESTEP
480
ITEM: NUMBER OF ATOMS
108
ITEM: BOX BOUNDS pp pp pp
0.0000000000000000e+00 5.0387885741475218e+00
0.0000000000000000e+00 5.0387885741475218e+00
0.0000000000000000e+00 5.0387885741475218e+00
ITEM: ATOMS id type element x y z ix iy iz vx vy vz
1 1 Ar 0.02376 0.96038 4.59995 0 0 -1 -0.7419 0.3993 -3.1273
2 1 Ar 0.60192 0.27431 0.59951 0 0 0 -0.9634 -0.7007 2.4703
3 1 Ar 1.09969 4.46141 0.12038 0 -1 0 0.2079 0.3896 -0.7222
4 1 Ar 4.90428 0.83266 0.97598 -1 0 0 -0.3742 1.1901 -0.4000
5 1 Ar 0.55781 0.34485 1.69921 0 0 0 0.5890 1.7537 0.7396
6 1 Ar 4.96083 1.25843 1.88135 -1 0 0 -1.2789 -1.5185 2.2981
7 1 Ar 0.94887 0.16352 2.75658 0 0 0 -0.7325 0.2153 2.5302
8 1 Ar 4.90619 0.79820 2.79502 -1 0 0 1.5777 1.4980 0.6849
9 1 Ar 0.15620 4.70593 4.41002 0 -1 0 -0.6183 0.5525 -0.5493
10 1 Ar 2.00840 4.57983 3.08376 0 -1 0 2.1775 0.5928 0.5949
11 1 Ar 1.48858 4.53559 4.25513 0 -1 0 -1.4169 -0.5059 0.5565
12 1 Ar 1.04833 0.48684 4.46719 0 0 0 1.1406 -1.0106 -1.1795
13 1 Ar 3.68418 2.78316 0.33708 -1 0 0 -0.4498 4.0253 -1.1201
14 1 Ar 0.57578 2.70787 0.92947 0 0 0 1.0734 -0.4014 -0.7977
15 1 Ar 4.70800 1.84089 0.95363 -1 0 0 -1.5576 0.1702 0.1674
16 1 Ar 3.47380 4.10629 1.90048 -1 0 0 0.5088 -1.1865 1.0695
17 1 Ar 0.29706 2.41999 1.97484 0 0 0 -0.1134 0.1505 1.9657
18 1 Ar 1.42050 1.98911 1.18065 0 0 0 0.4178 2.9093 -0.4008
19 1 Ar 0.88504 1.03090 2.31125 0 0 0 -0.0914 1.2421 -2.0489
20 1 Ar 4.95631 2.35950 3.73528 -1 0 0 0.9164 0.7931 -1.3364
21 1 Ar 0.47045 0.42171 3.65573 0 0 0 -1.0363 0.2509 0.5830
22 1 Ar 0.58289 1.46714 3.79653 0 0 0 1.1126 2.1105 -0.1279
23 1 Ar 0.84890 1.55656 0.20819 0 0 1 -0.6382 -0.5218 1.5335
24 1 Ar 0.13828 3.66739 3.14671 0 0 0 1.5191 0.3992 -1.6471
25 1 Ar 4.56703 3.08664 4.42475 -1 0 -1 -1.6950 1.3767 -0.4471
26 1 Ar 1.63281 3.35539 4.71059 0 0 -1 0.8553 -0.5869 0.2759
27 1 Ar 0.55081 3.70176 0.55844 0 0 0 -0.6012 -1.9796 0.7669
28 1 Ar 5.01068 4.56601 1.00069 -1 0 0 1.3573 -0.4365 0.7564
29 1 Ar 4.99762 3.75370 1.48359 -1 0 0 0.2585 0.5446 0.5529
30 1 Ar 0.66834 4.42535 1.76391 0 0 0 -1.0242 -1.6140 -1.2969
31 1 Ar 5.02103 4.43937 2.66567 -1 0 0 0.7723 0.1302 -0.1487
32 1 Ar 4.32856 4.72266 1.83089 -1 0 0 0.0860 -1.8731 0.4220
33 1 Ar 4.52830 2.56235 2.67124 -1 0 0 1.7748 -0.2231 -1.7505
34 1 Ar 0.77513 2.82723 2.74337 0 0 0 1.1031 0.0665 -0.1653
35 1 Ar 0.84183 2.58506 4.33874 0 0 0 -0.1011 0.6223 0.6962
36 1 Ar 0.63021 3.63985 4.57701 0 0 0 1.6667 -0.5462 0.0383
37 1 Ar 2.42121 1.24034 4.47832 0 0 -1 2.4889 0.2097 0.3235
38 1 Ar 2.56892 0.92386 0.98982 0 0 0 -0.3415 -1.3949 1.6683
39 1 Ar 2.65638 4.73065 0.27664 0 -1 0 2.0214 0.1979 1.9008
40 1 Ar 1.57071 4.95627 1.25640 0 -1 0 0.5495 -0.4843 1.8395
41 1 Ar 1.79306 3.92512 1.63944 0 -1 0 -0.4568 -3.0580 -0.4818
42 1 Ar 3.17639 0.80831 2.13738 0 0 0 2.3693 -2.2970 1.3500
43 1 Ar 3.03044 4.82452 2.57019 0 -1 0 -2.1163 2.9424 0.1614
44 1 Ar 1.84219 0.02853 2.23108 0 0 0 0.1558 -1.1920 -1.0389
45 1 Ar 2.67526 0.01426 3.95925 0 0 0 1.8033 -2.3199 -0.1546
46 1 Ar 2.88022 0.96616 3.12680 0 0 0 0.9914 0.3706 -0.2634
47 1 Ar 2.00298 3.83152 3.74234 0 -1 0 0.4958 -0.4085 0.5516
48 1 Ar 2.08833 0.28615 4.67275 0 0 0 0.6324 -1.0186 -0.4959
49 1 Ar 1.53274 0.65124 0.39864 0 0 0 -2.2321 -0.3619 -1.5545
50 1 Ar 3.38357 3.53176 4.93484 0 0 -1 0.3873 0.1392 1.7737
51 1 Ar 3.50361 3.14823 1.36829 0 0 0 1.1116 2.8243 -0.5643
52 1 Ar 2.67482 2.70535 1.07266 0 0 0 -1.4936 0.2267 1.4952
53 1 Ar 1.51205 0.78630 1.47730 0 0 0 -0.2107 -2.2056 -0.2805
54 1 Ar 2.50258 1.90360 1.69626 0 0 0 -0.5790 -0.5973 -1.0267
55 1 Ar 1.92666 1.29462 2.64125 0 0 0 -0.7269 0.7636 0.1032
56 1 Ar 0.94181 3.40509 1.81668 0 0 0 0.7644 -0.2415 0.8697
57 1 Ar 1.52203 0.74462 3.42310 0 0 0 0.1288 -0.2479 -4.0825
58 1 Ar 2.13831 2.72002 2.85393 0 0 0 -2.9491 -0.7578 -0.4484
59 1 Ar 2.24878 1.78893 0.46392 0 0 1 1.2915 0.3192 1.4462
60 1 Ar 1.51944 1.77360 4.54352 0 0 0 -0.1250 0.7726 1.6371
61 1 Ar 1.32053 2.48086 0.23828 0 0 0 1.3062 -0.6441 1.4982
62 1 Ar 1.88610 4.13847 0.65042 0 0 0 -0.5427 1.1313 -1.7591
63 1 Ar 2.72731 3.72910 1.03031 0 0 0 -1.9895 0.3184 -0.3986
64 1 Ar 1.55695 3.24982 0.92945 0 0 0 0.3885 -0.5233 -0.1686
65 1 Ar 1.42711 1.94663 2.21531 0 0 0 1.5944 0.6401 1.1550
66 1 Ar 1.96688 2.74964 1.76716 0 0 0 2.1075 -0.8391 0.4135
67 1 Ar 2.48137 3.84394 2.30152 0 0 0 -0.4172 -1.0355 -0.7947
68 1 Ar 1.57075 3.67533 2.79599 0 0 0 -1.6403 1.4608 0.0490
69 1 Ar 1.22322 2.11844 3.43718 0 0 0 -1.0759 0.7226 -2.2538
70 1 Ar 1.81152 2.68685 4.05977 0 0 0 -0.2491 -0.5158 2.4441
71 1 Ar 2.72674 2.88739 0.00556 0 0 1 1.0167 -0.8017 1.3560
72 1 Ar 1.07867 3.30242 3.63580 0 0 0 -1.8155 0.3315 -0.4220
73 1 Ar 3.30929 0.93008 4.68124 0 0 -1 -0.9170 -0.8270 -2.1280
74 1 Ar 4.36581 0.42005 4.17659 0 0 -1 -0.0134 -0.8437 0.6898
75 1 Ar 4.13424 1.18615 0.14403 0 0 0 -1.2688 -1.2255 0.4528
76 1 Ar 3.16882 1.99134 4.87983 0 0 -1 -1.5144 0.1309 -0.3357
77 1 Ar 3.47480 0.18004 1.43784 0 0 0 0.0900 1.8874 -1.1940
78 1 Ar 3.81161 1.13332 1.20569 0 0 0 -0.8002 -1.6266 -2.2074
79 1 Ar 4.05866 0.27994 2.68050 0 0 0 -3.2024 -0.2843 -1.4094
80 1 Ar 3.84286 1.49895 2.93897 0 0 0 -0.5417 1.0485 0.2368
81 1 Ar 3.53678 0.26631 3.57492 0 0 0 -0.3339 1.7908 -0.4285
82 1 Ar 4.59874 1.46914 3.80393 0 0 0 -1.9453 -1.6600 1.5934
83 1 Ar 4.59566 4.88299 3.53360 0 -1 0 -0.2335 -1.0720 1.5382
84 1 Ar 3.34076 1.45447 3.79165 0 0 0 1.3557 -2.0083 -0.2773
85 1 Ar 3.02064 2.59691 3.78844 0 0 -1 -0.8704 2.3665 -1.1488
86 1 Ar 4.47706 3.34056 0.62563 0 0 0 0.6173 -0.5422 0.3697
87 1 Ar 4.38625 2.83761 1.67954 0 0 0 1.7647 0.2624 1.5454
88 1 Ar 3.66965 4.64316 4.41461 0 0 -1 1.2078 1.0454 -1.2634
89 1 Ar 3.28113 1.94912 1.01240 0 0 0 -1.4895 1.2855 -0.5103
90 1 Ar 3.84984 1.94535 1.89474 0 0 0 -0.6410 -0.7747 -1.0186
91 1 Ar 0.53923 1.76441 2.83523 1 0 0 0.5643 -0.6818 0.0116
92 1 Ar 2.88067 2.06974 2.62479 0 0 0 -2.2548 -0.3943 -0.6534
93 1 Ar 2.26433 1.77228 3.43696 0 0 0 0.5114 -2.0147 1.3269
94 1 Ar 3.88289 2.63068 3.38734 0 0 0 0.0528 0.6439 1.1132
95 1 Ar 4.90526 2.09901 4.86092 0 0 0 0.3580 0.4493 0.8151
96 1 Ar 2.86040 3.46599 3.17659 0 0 0 -0.7841 -1.4771 1.0673
97 1 Ar 2.72794 4.04980 4.45881 0 0 -1 2.0038 1.7590 -2.8215
98 1 Ar 4.58793 0.16541 0.16378 0 1 0 -2.0011 0.9961 0.0143
99 1 Ar 4.51059 4.14347 5.00152 0 0 -1 0.0412 1.3297 0.4613
100 1 Ar 3.44936 0.22031 0.44028 0 1 0 1.0345 -0.8429 0.3859
101 1 Ar 3.36496 2.97829 2.30472 0 0 0 0.0317 -2.2436 -0.1517
102 1 Ar 3.51329 4.23769 0.79962 0 0 0 -1.5818 -0.2304 -1.4996
103 1 Ar 2.65065 4.62179 1.42372 0 0 0 -0.0926 0.9736 -1.4968
104 1 Ar 3.48086 4.31086 3.23671 0 0 0 1.4441 0.2317 -0.6913
105 1 Ar 4.17888 3.69754 2.75001 0 0 0 -1.0100 1.6593 1.0009
106 1 Ar 0.91897 4.40253 3.34948 1 0 0 2.1582 0.1652 -0.4186
107 1 Ar 3.93806 2.20401 4.32621 0 0 0 0.1100 -2.2611 0.6933
108 1 Ar 4.40727 4.00074 3.87338 0 0 0 -0.1732 2.2811 -0.9457
ITEM: TIMESTEP
520
ITEM: NUMBER OF ATOMS
108
ITEM: BOX BOUNDS pp pp pp
0.0000000000000000e+00 5.0387885741475218e+00
0.0000000000000000e+00 5.0387885741475218e+00
0.0000000000000000e+00 5.0387885741475218e+00
ITEM: ATOMS id type element x y z ix iy iz vx vy vz
1 1 Ar 0.26410 1.06243 4.82579 0 0 -1 0.5538 -0.3033 3.3432
2 1 Ar 0.63628 0.40297 0.81669 0 0 0 1.0699 2.0979 1.8075
3 1 Ar 0.67336 4.59468 0.14819 0 -1 0 -1.1124 0.4221 1.5077
4 1 Ar 4.76437 1.02311 0.93437 -1 0 0 -0.9446 1.1945 0.6413
5 1 Ar 0.32832 0.35485 1.80284 0 0 0 -1.7076 0.6491 0.7075
6 1 Ar 4.60141 1.28145 2.00557 -1 0 0 -1.8523 0.7135 -0.0143
7 1 Ar 0.80636 0.32616 2.72856 0 0 0 1.3162 1.9780 0.1609
8 1 Ar 5.02506 0.91478 2.92216 -1 0 0 0.6420 -1.0036 -2.7093
9 1 Ar 0.07972 4.67375 4.41247 0 -1 0 -1.2694 -1.2886 -1.2931
10 1 Ar 2.04337 4.45659 3.26899 0 -1 0 -1.6088 -2.0617 0.6996
11 1 Ar 1.55597 4.39015 4.37671 0 -1 0 0.4898 -1.3808 -0.2936
12 1 Ar 1.27356 0.45166 4.30389 0 0 0 1.9450 0.1684 -0.0359
13 1 Ar 3.89763 2.65802 0.33145 -1 0 0 0.4655 0.0075 -0.7578
14 1 Ar 0.50681 2.46109 0.81019 0 0 0 -0.5920 -0.5045 -2.7084
15 1 Ar 4.36921 2.02549 0.89766 -1 0 0 -0.3593 -1.2573 -2.3151
16 1 Ar 3.50378 4.06139 2.18805 -1 0 0 -0.0181 0.4825 1.1588
17 1 Ar 0.42709 2.14018 1.78873 0 0 0 -0.8462 -2.9174 -0.2428
18 1 Ar 1.58731 2.24130 1.33129 0 0 0 0.1754 0.2278 0.0170
19 1 Ar 0.97237 1.24911 2.22030 0 0 0 -1.2271 -0.9581 0.1686
20 1 Ar 0.23015 2.66328 3.64108 0 0 0 1.1625 1.7140 1.1776
21 1 Ar 0.34147 0.47484 3.83143 0 0 0 -0.4898 0.9349 -0.2399
22 1 Ar 0.56637 1.59453 4.01812 0 0 0 -3.5746 -0.7426 0.4613
23 1 Ar 0.56084 1.44982 0.63281 0 0 1 -0.4468 0.2421 2.7967
24 1 Ar 0.15437 3.58457 2.93370 0 0 0 1.1217 0.7543 -0.4159
25 1 Ar 4.29697 3.04366 4.64005 -1 0 -1 0.0252 0.5684 1.1597
26 1 Ar 1.69604 3.38679 4.78250 0 0 -1 -2.2003 0.2750 -1.9682
27 1 Ar 0.66286 3.69028 0.72211 0 0 0 1.9239 1.1685 1.0342
28 1 Ar 4.86170 4.39968 0.93937 -1 0 0 0.4690 -1.5974 0.4842
29 1 Ar 5.01165 3.70193 1.78553 -1 0 0 0.1169 -1.2093 1.5530
30 1 Ar 0.83577 4.24428 1.81524 0 0 0 1.2982 -0.5363 0.8561
31 1 Ar 0.03465 4.58105 2.30413 0 0 0 -1.1933 -1.0974 -0.1430
32 1 Ar 4.28575 4.39197 1.70216 -1 0 0 -1.8029 -1.6266 -1.7943
33 1 Ar 4.52582 2.52667 2.67296 -1 0 0 -2.1288 1.2948 -1.1685
34 1 Ar 0.83477 2.87348 2.89228 0 0 0 -0.8872 0.0079 1.0084
35 1 Ar 0.71693 2.55266 4.52781 0 0 0 0.4147 0.0477 0.9773
36 1 Ar 0.69056 3.75631 4.66807 0 0 0 -0.5072 0.2757 0.6167
37 1 Ar 2.36791 1.05630 4.66190 0 0 -1 -0.2648 -1.2458 1.8999
38 1 Ar 2.67908 0.64548 1.24584 0 0 0 1.9805 -0.5661 -0.0206
39 1 Ar 2.79440 4.72372 0.30392 0 -1 0 1.3394 -0.7732 0.1261
40 1 Ar 1.42079 4.73229 1.06508 0 -1 0 -1.3821 2.3716 -1.5850
41 1 Ar 1.71161 3.88677 1.58766 0 -1 0 -0.0478 2.2156 -2.9141
42 1 Ar 3.19178 1.17235 1.94980 0 0 0 -2.4955 0.6044 -0.1611
43 1 Ar 2.84227 0.17368 2.43350 0 0 0 1.1665 0.8443 -1.5359
44 1 Ar 1.69042 4.96119 2.18327 0 -1 0 -2.5736 -0.4417 -0.1163
45 1 Ar 2.80663 0.21403 3.60358 0 0 0 -1.7326 -0.4973 -2.3303
46 1 Ar 2.76378 0.99621 3.11689 0 0 0 -0.3356 2.9521 -0.8304
47 1 Ar 1.95562 3.52779 3.85917 0 -1 0 0.7922 0.4185 2.2093
48 1 Ar 2.18058 0.11239 4.63331 0 0 0 -0.3675 -1.2259 -1.0865
49 1 Ar 1.52925 0.79443 0.23099 0 0 0 1.9641 1.0135 -0.1247
50 1 Ar 3.62752 3.86943 4.92508 0 0 -1 -0.7020 -1.8947 0.6534
51 1 Ar 3.76169 3.39695 1.14534 0 0 0 0.3734 -0.8300 0.1651
52 1 Ar 2.53327 2.59851 1.16353 0 0 0 0.8092 -1.1098 0.2438
53 1 Ar 1.62226 0.98197 1.26493 0 0 0 -0.3877 0.4396 -2.0368
54 1 Ar 2.41398 1.62084 1.50111 0 0 0 1.6146 1.2424 -1.4152
55 1 Ar 1.99098 1.09170 2.31033 0 0 0 -1.5813 -3.2076 -0.3137
56 1 Ar 0.84253 3.14961 1.64186 0 0 0 0.0673 -1.3127 -2.6274
57 1 Ar 1.60306 0.63060 3.34815 0 0 0 1.0381 -0.4518 0.5953
58 1 Ar 2.03661 3.02529 3.09696 0 0 0 1.0881 0.4810 0.3450
59 1 Ar 2.20024 1.76728 0.52905 0 0 1 -1.2848 -1.1686 -1.8497
60 1 Ar 1.37774 1.43453 4.56808 0 0 0 -1.1251 -2.4677 -0.2148
61 1 Ar 1.55620 2.41503 0.10624 0 0 0 -0.8476 -1.1180 1.6812
62 1 Ar 1.79077 4.43581 0.22452 0 0 0 -0.5069 2.4155 -0.8616
63 1 Ar 2.55640 3.82721 0.90763 0 0 0 0.6354 0.9377 -0.9448
64 1 Ar 1.57893 3.21219 0.85930 0 0 0 0.0019 0.4508 -0.4438
65 1 Ar 1.39788 2.25356 2.36302 0 0 0 2.1124 0.6076 1.5265
66 1 Ar 2.09060 2.90224 2.00453 0 0 0 -0.1205 -1.5825 1.2125
67 1 Ar 2.55679 3.79187 2.20687 0 0 0 -0.1503 1.6715 -0.4740
68 1 Ar 1.42967 3.76128 2.56736 0 0 0 -0.7543 -0.1073 1.1101
69 1 Ar 1.36824 2.10467 3.44192 0 0 0 0.5312 0.0432 -1.1442
70 1 Ar 1.79508 2.51344 4.23235 0 0 0 -0.9447 0.0787 -0.3421
71 1 Ar 2.52143 2.80486 0.01668 0 0 1 1.7934 -1.2821 -0.5558
72 1 Ar 1.02169 3.20530 3.78484 0 0 0 -1.1977 -1.3183 1.5790
73 1 Ar 3.10458 0.45658 4.55399 0 0 -1 -0.7993 -0.2436 2.0309
74 1 Ar 4.49441 0.47869 4.40033 0 0 -1 2.4724 -0.8629 0.1619
75 1 Ar 4.16277 1.28216 4.99368 0 0 -1 0.6361 -0.3818 0.1740
76 1 Ar 3.14003 1.89640 4.87496 0 0 -1 0.6824 0.0534 -0.1532
77 1 Ar 3.58466 0.07886 1.64562 0 0 0 -0.4418 2.2728 3.2093
78 1 Ar 3.72402 1.05148 1.08630 0 0 0 0.2510 -1.5805 0.2881
79 1 Ar 3.93588 4.89486 2.48384 0 -1 0 -0.4105 -1.6802 -0.7217
80 1 Ar 3.88229 1.71581 2.79070 0 0 0 0.0465 0.6719 -0.1411
81 1 Ar 3.84566 0.62588 3.40112 0 0 0 1.3040 0.6149 -1.7528
82 1 Ar 4.48202 1.34253 3.62797 0 0 0 1.0378 3.0527 0.1710
83 1 Ar 4.62660 5.01656 3.27599 0 -1 0 0.5215 0.3883 0.4959
84 1 Ar 3.15967 1.53786 3.92429 0 0 0 -2.2668 0.7958 0.5084
85 1 Ar 2.97571 2.52721 3.98686 0 0 -1 2.2428 -0.6309 0.9962
86 1 Ar 4.67194 3.27266 0.71413 0 0 0 1.2590 -0.5366 -0.1025
87 1 Ar 4.36180 2.67675 1.68997 0 0 0 -0.1244 1.3460 1.2405
88 1 Ar 3.76457 4.75832 4.25292 0 0 -1 0.8747 1.5013 -0.1242
89 1 Ar 3.30584 1.93398 0.85449 0 0 0 -1.0458 -0.2940 0.2511
90 1 Ar 3.81944 1.93982 1.74557 0 0 0 0.3356 1.4416 -0.7503
91 1 Ar 0.33330 1.90262 2.87889 1 0 0 1.0817 0.5289 0.5694
92 1 Ar 2.68651 2.00406 2.66417 0 0 0 -0.0536 0.5289 0.1729
93 1 Ar 2.24334 1.73928 3.54497 0 0 0 -0.7052 0.7352 -0.2208
94 1 Ar 4.01954 2.82970 3.56846 0 0 0 0.1328 1.2431 1.4157
95 1 Ar 4.99801 2.13440 0.04118 0 0 1 0.0301 -0.3554 1.8994
96 1 Ar 2.89817 3.51380 3.18766 0 0 0 2.1375 -0.3234 -1.5016
97 1 Ar 2.86215 3.90492 4.04000 0 0 -1 0.8108 0.1448 0.5687
98 1 Ar 4.92658 0.18350 0.25941 0 1 0 2.4722 0.1020 -0.5702
99 1 Ar 4.57408 4.24060 0.03861 0 0 0 1.3673 -0.6595 -0.4412
100 1 Ar 3.59644 0.28724 0.46009 0 1 0 1.1675 1.4828 0.7680
101 1 Ar 3.44946 2.66105 2.40838 0 0 0 0.9990 -0.4457 0.5880
102 1 Ar 3.73714 4.41163 0.87538 0 0 0 2.1149 -0.3664 -0.7509
103 1 Ar 2.45739 4.69006 1.48601 0 0 0 -1.2259 -2.3970 1.5063
104 1 Ar 3.45975 4.54354 3.31979 0 0 0 -0.9802 0.1497 -1.3423
105 1 Ar 4.26373 3.68018 2.68545 0 0 0 -1.4009 -0.4919 -1.2185
106 1 Ar 0.94546 4.35135 3.31867 1 0 0 -1.3903 0.1607 -0.4889
107 1 Ar 4.10944 2.12822 4.51227 0 0 0 0.1947 1.3887 -1.1682
108 1 Ar 4.26178 3.92626 3.75583 0 0 0 -0.2539 -0.2801 -1.2227
ITEM: TIMESTEP
560
ITEM: NUMBER OF ATOMS
108
ITEM: BOX BOUNDS pp pp pp
0.0000000000000000e+00 5.0387885741475218e+00
0.0000000000000000e+00 5.0387885741475218e+00
0.0000000000000000e+00 5.0387885741475218e+00
ITEM: ATOMS id type element x y z ix iy iz vx vy vz
1 1 Ar 0.48959 1.15876 0.13845 0 0 0 1.3863 0.9067 0.7923
2 1 Ar 0.73192 0.70776 1.02762 0 0 0 1.5862 -0.0364 0.3627
3 1 Ar 0.85083 4.76737 0.28006 0 -1 0 0.5426 1.3700 -0.4860
4 1 Ar 4.65743 0.88631 0.98986 -1 0 0 -2.0616 0.7836 -0.8687
5 1 Ar 0.00010 0.32116 1.81594 0 0 0 -1.0677 -2.1678 0.7345
6 1 Ar 4.32056 1.29453 2.01823 -1 0 0 -1.7355 -1.2788 1.2484
7 1 Ar 1.01732 0.38855 2.86764 0 0 0 1.8053 1.6604 -2.2650
8 1 Ar 4.90550 0.87379 2.83484 -1 0 0 -1.1545 0.2040 1.6607
9 1 Ar 0.14567 4.27879 4.04844 0 -1 0 -0.0035 -1.9557 -0.4363
10 1 Ar 1.89445 4.31582 3.21500 0 -1 0 -0.7085 0.0971 0.0913
11 1 Ar 1.16312 4.31876 4.16603 0 -1 0 -1.5735 -0.0087 1.4975
12 1 Ar 1.22112 0.25590 4.33193 0 0 0 -0.5646 -0.4603 0.5054
13 1 Ar 3.64567 2.59849 0.38369 -1 0 0 0.6578 -2.6070 0.6804
14 1 Ar 0.56223 2.71803 0.56414 0 0 0 0.3343 1.2109 -0.8280
15 1 Ar 4.29650 1.97848 0.86592 -1 0 0 0.5851 1.5190 0.2128
16 1 Ar 3.16059 4.20455 2.12161 -1 0 0 -1.6418 1.2732 -1.1179
17 1 Ar 5.01632 2.01248 1.90152 -1 0 0 -2.4639 2.5524 0.8233
18 1 Ar 1.62392 2.23664 1.47294 0 0 0 2.1534 1.7478 1.7233
19 1 Ar 0.87021 1.13349 2.14414 0 0 0 -0.3337 -0.9147 -0.1479
20 1 Ar 4.92322 2.55777 3.83540 -1 0 0 0.7288 -2.9942 0.1632
21 1 Ar 0.53064 0.74437 3.68249 0 0 0 0.3191 1.9971 0.5281
22 1 Ar 0.28837 1.64153 4.09125 0 0 0 -0.7780 -0.2834 -1.7175
23 1 Ar 0.76873 1.81720 0.97433 0 0 1 -1.1438 0.1856 -0.2174
24 1 Ar 0.18120 3.66455 3.10932 0 0 0 -0.6835 -1.3178 3.0524
25 1 Ar 4.62091 3.32948 4.36354 -1 0 -1 -0.2899 1.1069 -0.6354
26 1 Ar 1.28904 3.34913 4.95321 0 0 -1 -0.7579 -0.2190 0.4183
27 1 Ar 0.89915 3.65771 0.80618 0 0 0 -0.5032 -1.7151 -0.7857
28 1 Ar 0.05929 4.31728 1.14487 0 0 0 -0.0392 0.6346 1.1620
29 1 Ar 0.11120 3.42523 2.02653 0 0 0 -1.3693 -2.9010 0.6830
30 1 Ar 0.79049 4.27734 1.82726 0 0 0 0.2849 0.5577 -1.7095
31 1 Ar 5.00705 4.54220 2.41075 -1 0 0 0.6057 0.5250 -0.1002
32 1 Ar 4.20697 4.06487 1.68528 -1 0 0 0.4635 -1.0563 -0.4918
33 1 Ar 4.66146 2.59492 2.86470 -1 0 0 1.5889 1.1459 -0.4024
34 1 Ar 0.74040 2.78150 2.66347 0 0 0 -1.8353 -2.9703 -1.2425
35 1 Ar 0.66930 2.53028 4.59728 0 0 0 -0.5834 0.2701 -2.0905
36 1 Ar 0.42417 3.67683 4.78063 0 0 0 2.0908 -2.6475 1.7795
37 1 Ar 2.35119 1.07933 4.42622 0 0 -1 -1.8702 -0.3335 -1.9551
38 1 Ar 2.70662 0.57635 0.86636 0 0 0 -0.4516 0.9126 -3.0883
39 1 Ar 2.98285 4.70057 0.22194 0 -1 0 -0.2053 0.7142 -0.9396
40 1 Ar 1.41257 0.00962 1.24277 0 0 0 0.9492 1.4591 0.3637
41 1 Ar 1.84909 4.07745 1.29032 0 -1 0 2.7637 1.0322 1.1708
42 1 Ar 3.15662 1.16762 1.99147 0 0 0 -0.0891 -1.1306 0.0207
43 1 Ar 2.76307 0.22746 2.52589 0 0 0 0.8658 0.4094 -0.2267
44 1 Ar 1.55314 4.72356 2.24075 0 -1 0 2.2110 -1.7843 2.7980
45 1 Ar 2.57017 5.00727 3.42731 0 -1 0 -0.3458 0.2525 0.8502
46 1 Ar 2.71445 1.13624 3.11751 0 0 0 -0.6934 -0.9126 -0.1413
47 1 Ar 2.43776 3.39779 3.96391 0 -1 0 2.9053 -0.6565 0.5181
48 1 Ar 2.41814 4.77846 4.35102 0 -1 0 0.4095 -2.0181 0.7009
49 1 Ar 1.63474 0.40512 0.26930 0 0 0 0.0351 -2.0140 -0.0318
50 1 Ar 3.37594 3.50772 0.03166 0 0 0 -1.1289 0.1316 -0.8251
51 1 Ar 3.52865 3.44822 1.14895 0 0 0 -0.2422 1.7645 0.4310
52 1 Ar 2.84944 2.82013 1.02479 0 0 0 3.6184 -2.4297 0.0310
53 1 Ar 1.55477 1.16335 1.43820 0 0 0 -0.7633 -0.0805 0.9057
54 1 Ar 2.43842 1.72763 1.58347 0 0 0 1.7697 0.8706 2.4723
55 1 Ar 1.87514 0.67116 2.26110 0 0 0 0.0135 0.2586 0.0138
56 1 Ar 0.94148 2.97060 1.69475 0 0 0 0.9236 0.1591 1.9877
57 1 Ar 1.81374 0.84915 3.38341 0 0 0 -0.6396 2.5862 0.7435
58 1 Ar 2.05317 2.82960 3.13311 0 0 0 -1.0237 -0.6532 1.0207
59 1 Ar 2.23378 1.57998 0.52899 0 0 1 1.2240 -1.9530 0.3627
60 1 Ar 1.31635 1.59091 4.45013 0 0 0 2.0414 0.4964 0.7975
61 1 Ar 1.41869 2.14680 0.25534 0 0 0 0.2904 -0.7875 -2.1704
62 1 Ar 1.89662 4.46205 0.32516 0 0 0 1.4144 -1.1500 0.0036
63 1 Ar 2.69832 3.78671 0.67688 0 0 0 -0.6862 1.8480 -1.3872
64 1 Ar 1.85287 3.02623 0.83087 0 0 0 -0.1485 -1.2434 0.6159
65 1 Ar 1.64578 1.84301 2.37445 0 0 0 0.6946 -3.1650 0.3223
66 1 Ar 2.25035 2.96668 1.83464 0 0 0 -0.1644 1.1733 -2.0826
67 1 Ar 2.11732 3.92764 2.31912 0 0 0 0.1147 1.0562 -0.4670
68 1 Ar 1.18329 3.67953 2.74539 0 0 0 -3.4659 0.4287 1.2634
69 1 Ar 1.04510 2.13855 3.67947 0 0 0 -1.3755 1.1719 1.6724
70 1 Ar 1.80307 2.61180 4.34248 0 0 0 0.0291 0.8072 2.1420
71 1 Ar 2.66435 2.73806 5.03600 0 0 0 -1.4557 0.0867 0.1360
72 1 Ar 1.14491 3.35995 3.84809 0 0 0 0.1064 -0.1313 -1.7630
73 1 Ar 3.24712 0.48634 4.65610 0 0 -1 1.1805 0.6413 -0.5112
74 1 Ar 4.66858 0.61989 4.28995 0 0 -1 0.8699 1.3732 -0.9468
75 1 Ar 4.23808 1.17997 0.06488 0 0 0 0.0389 0.4191 0.1405
76 1 Ar 3.30379 1.70210 4.80091 0 0 -1 0.1930 -1.9003 -0.4398
77 1 Ar 3.75342 0.18040 1.73796 0 0 0 1.1471 -0.8324 -1.1035
78 1 Ar 3.75387 1.12699 1.20732 0 0 0 -0.2842 -1.7499 -1.8457
79 1 Ar 3.97460 4.94123 2.62661 0 -1 0 -1.5187 -0.5144 0.9152
80 1 Ar 3.58121 1.70942 2.67863 0 0 0 -3.6105 0.7143 -1.9480
81 1 Ar 3.86507 0.79111 3.09508 0 0 0 -0.2902 1.2570 -0.6255
82 1 Ar 4.40956 1.81955 3.39079 0 0 0 -0.5087 -0.1377 -0.4737
83 1 Ar 4.77786 0.03373 3.32966 0 0 0 0.3498 1.2082 -0.0035
84 1 Ar 3.30481 1.25081 3.90805 0 0 0 4.0065 -1.6200 -0.8770
85 1 Ar 3.14372 2.73516 4.12724 0 0 -1 -1.1058 1.2964 0.2318
86 1 Ar 4.76423 3.39014 0.65231 0 0 0 -2.3042 2.8378 -0.3216
87 1 Ar 4.40290 2.76255 1.54179 0 0 0 -0.2976 -1.2352 -0.8721
88 1 Ar 3.99899 4.79045 4.19989 0 0 -1 2.1430 0.5208 -0.2238
89 1 Ar 3.10414 1.87380 0.78651 0 0 0 -1.4356 0.4526 -0.1368
90 1 Ar 3.58357 2.10923 1.66265 0 0 0 -1.1753 -0.5963 -2.9812
91 1 Ar 0.20585 1.80569 2.86192 1 0 0 -0.3938 -1.5097 -0.3410
92 1 Ar 2.63682 2.19717 2.47962 0 0 0 0.7366 -0.9848 -0.6769
93 1 Ar 2.13649 1.80627 3.62137 0 0 0 -0.2864 -0.0003 0.0831
94 1 Ar 3.99076 3.05818 3.57298 0 0 0 -0.3940 0.7129 -1.5672
95 1 Ar 4.80797 1.97812 4.86894 0 0 0 -1.0567 0.6481 1.2538
96 1 Ar 3.26512 3.42220 3.10166 0 0 0 -0.9987 -0.6852 1.8411
97 1 Ar 3.22218 4.21439 4.29078 0 0 -1 1.1960 0.8141 0.8941
98 1 Ar 4.87050 0.05629 0.39988 0 1 0 2.5193 -0.1517 1.1831
99 1 Ar 4.73350 4.27140 0.05358 0 0 0 0.9643 0.9095 -0.7107
100 1 Ar 3.89988 0.32843 0.54006 0 1 0 -1.7256 -0.0115 1.9837
101 1 Ar 3.55169 2.79419 2.40052 0 0 0 1.1124 2.6294 1.1186
102 1 Ar 3.86705 4.31994 0.59516 0 0 0 -1.0247 -0.6366 1.6166
103 1 Ar 2.58301 4.86445 1.61371 0 0 0 0.4541 1.0610 -0.5406
104 1 Ar 3.26251 4.38797 3.22922 0 0 0 0.7658 -0.0466 -0.1331
105 1 Ar 4.21341 3.58425 2.56367 0 0 0 0.5200 0.3065 -0.3266
106 1 Ar 0.72167 4.61110 3.25751 1 0 0 -1.0342 0.2686 -1.1176
107 1 Ar 4.01475 2.25463 4.38362 0 0 0 -0.5541 1.4852 0.2477
108 1 Ar 4.27808 4.08287 3.54074 0 0 0 0.3309 1.6665 -1.6277
ITEM: TIMESTEP
600
ITEM: NUMBER OF ATOMS
108
ITEM: BOX BOUNDS pp pp pp
0.0000000000000000e+00 5.0387885741475218e+00
0.0000000000000000e+00 5.0387885741475218e+00
0.0000000000000000e+00 5.0387885741475218e+00
ITEM: ATOMS id type element x y z ix iy iz vx vy vz
1 1 Ar 0.66880 1.33966 0.02925 0 0 0 -0.0302 0.6323 0.0090
2 1 Ar 0.83951 0.76226 1.15708 0 0 0 1.2394 -0.1408 0.2601
3 1 Ar 0.80009 4.71839 0.19836 0 -1 0 -2.4106 0.3137 0.1885
4 1 Ar 4.81327 0.99660 1.14471 -1 0 0 1.1389 0.2941 0.2568
5 1 Ar 4.86020 0.25878 1.76046 -1 0 0 0.1915 -0.9621 1.0823
6 1 Ar 4.20398 1.12184 1.87700 -1 0 0 1.4392 -0.4828 -1.0290
7 1 Ar 1.07086 0.50496 2.59409 0 0 0 -0.2520 0.6895 -3.0268
8 1 Ar 4.73862 0.76242 2.80821 -1 0 0 -1.1801 -0.3081 -2.0406
9 1 Ar 0.18611 4.29713 4.01206 0 -1 0 1.4176 0.9772 0.6579
10 1 Ar 1.64457 4.16398 3.59677 0 -1 0 -1.4980 -0.3779 1.1325
11 1 Ar 1.13211 4.08855 4.46790 0 -1 0 -0.0413 -1.0645 0.0683
12 1 Ar 1.23013 0.40844 4.44748 0 0 0 0.4983 0.7957 0.6450
13 1 Ar 3.82325 2.44531 0.24169 -1 0 0 0.5793 -1.1463 0.7484
14 1 Ar 0.50466 2.66799 0.67022 0 0 0 0.2008 1.1359 2.9102
15 1 Ar 4.56652 2.10104 1.04708 -1 0 0 0.2396 2.6989 0.3271
16 1 Ar 3.27264 4.33956 1.98807 -1 0 0 1.2729 2.9236 1.0016
17 1 Ar 4.86252 2.07837 1.95263 -1 0 0 0.1686 -1.6208 -0.8943
18 1 Ar 1.63420 2.21578 1.70250 0 0 0 -0.6725 0.3972 1.9382
19 1 Ar 0.35113 1.25631 1.93393 0 0 0 -3.3273 0.4783 0.6682
20 1 Ar 4.98069 2.44476 3.69967 -1 0 0 1.6817 0.3348 -2.6282
21 1 Ar 0.56142 0.62137 3.62002 0 0 0 -0.3080 0.4582 1.4737
22 1 Ar 0.25282 1.69793 4.19007 0 0 0 2.3959 -0.6591 2.1568
23 1 Ar 0.54780 1.80284 1.16838 0 0 1 -0.4524 0.0028 0.8232
24 1 Ar 0.04761 3.48242 3.44232 0 0 0 -0.0959 1.9568 -0.5028
25 1 Ar 4.34719 3.46149 4.40766 -1 0 -1 -1.5310 0.6049 1.1139
26 1 Ar 1.68594 3.45059 4.91410 0 0 -1 1.5285 -1.2135 -1.2152
27 1 Ar 0.90520 3.79687 0.87093 0 0 0 0.2000 0.5001 -0.8174
28 1 Ar 0.07569 4.47638 1.02392 0 0 0 1.0207 -0.3312 -0.8670
29 1 Ar 0.09837 3.28151 1.80841 0 0 0 1.0010 0.6904 -2.3166
30 1 Ar 1.11298 4.32349 1.77874 0 0 0 1.3986 0.8882 1.4739
31 1 Ar 5.02242 4.31187 2.50924 -1 0 0 0.6513 0.1998 0.1576
32 1 Ar 4.32947 4.14879 1.67978 -1 0 0 0.0471 0.8222 -0.8287
33 1 Ar 4.58762 2.59453 2.74071 -1 0 0 -1.1325 -0.9818 -0.1856
34 1 Ar 0.83195 2.57872 2.48064 0 0 0 1.3829 0.7047 -1.8916
35 1 Ar 0.73347 2.60408 4.46457 0 0 0 1.4805 -0.2604 -0.9831
36 1 Ar 0.29516 3.57151 4.99105 0 0 0 -0.8833 1.1779 0.6536
37 1 Ar 2.42846 0.85382 4.34382 0 0 -1 1.0165 0.0534 2.7862
38 1 Ar 2.82200 0.72920 0.36662 0 0 0 0.7379 2.3639 -2.2583
39 1 Ar 2.86966 4.57621 0.06601 0 -1 0 -1.4720 -2.6556 -1.2989
40 1 Ar 1.61579 0.13760 1.43521 0 0 0 -0.2547 0.7707 0.7384
41 1 Ar 2.10167 4.17492 1.46766 0 -1 0 0.8160 0.4659 0.6437
42 1 Ar 3.17531 0.81936 1.97970 0 0 0 2.6383 -0.1461 0.7153
43 1 Ar 2.97516 4.93377 2.69171 0 -1 0 -0.5658 -0.4345 1.0167
44 1 Ar 1.79913 4.70769 2.49496 0 -1 0 1.5349 -0.7952 0.4210
45 1 Ar 2.42170 0.20693 3.49241 0 0 0 -0.7267 -1.2889 -2.2924
46 1 Ar 2.69276 1.13921 2.95313 0 0 0 -1.6038 1.3834 -0.6689
47 1 Ar 2.32616 3.68309 4.21239 0 -1 0 0.0934 -2.1536 1.4567
48 1 Ar 2.07268 4.75045 4.38858 0 -1 0 -2.5969 4.1081 -0.1914
49 1 Ar 1.84546 0.30230 0.24065 0 0 0 0.6432 -2.3140 -0.2328
50 1 Ar 3.41927 3.31242 4.90964 0 0 -1 0.4466 -0.8084 -0.8995
51 1 Ar 3.32292 3.57890 1.45877 0 0 0 -0.8726 -2.0018 0.6348
52 1 Ar 3.02126 2.58338 1.00452 0 0 0 1.3768 -1.8321 -0.3007
53 1 Ar 1.69860 1.21419 1.36637 0 0 0 1.0236 -1.0695 0.1763
54 1 Ar 2.64733 1.67116 1.54111 0 0 0 0.7767 -0.4077 -0.1367
55 1 Ar 2.27813 0.55805 2.13386 0 0 0 -0.3080 -1.5505 -0.2583
56 1 Ar 1.20713 3.28400 1.80213 0 0 0 2.0349 2.0341 -0.3545
57 1 Ar 1.55711 1.10738 3.51245 0 0 0 0.0095 -0.2730 0.7289
58 1 Ar 1.79847 2.97627 3.26734 0 0 0 -0.9491 2.3678 0.1256
59 1 Ar 1.70177 1.37583 0.26435 0 0 1 -2.6997 0.1713 -2.2237
60 1 Ar 1.33587 1.50828 4.38132 0 0 0 -0.9482 1.1204 -0.0823
61 1 Ar 1.38640 2.29876 0.33206 0 0 0 -1.0018 1.6822 0.1371
62 1 Ar 1.73416 4.29797 0.40153 0 0 0 0.6658 -0.2253 2.9737
63 1 Ar 2.77658 3.71502 0.64060 0 0 0 -0.5703 -1.2745 -1.1200
64 1 Ar 1.81674 2.95147 0.96061 0 0 0 -0.9559 0.3503 0.9475
65 1 Ar 1.69117 1.54547 2.66708 0 0 0 0.0340 0.9189 -0.1133
66 1 Ar 2.44688 3.23913 1.74797 0 0 0 1.4123 1.1474 2.4977
67 1 Ar 2.29944 3.87900 2.67662 0 0 0 -0.9542 1.9856 1.5891
68 1 Ar 0.71956 3.67482 2.61499 0 0 0 -1.1925 -0.9950 -1.2731
69 1 Ar 1.06447 2.23033 3.44423 0 0 0 0.6047 -1.1564 -0.2940
70 1 Ar 1.77954 2.60834 4.26073 0 0 0 -0.9969 0.9694 0.2536
71 1 Ar 2.50512 2.69230 0.15225 0 0 1 -0.5073 -0.0216 -0.7795
72 1 Ar 1.01144 3.38416 3.73677 0 0 0 -3.0915 1.7421 1.7153
73 1 Ar 3.41216 0.37100 4.61375 0 0 -1 -1.1304 -1.9979 -1.3929
74 1 Ar 4.77152 0.78061 4.22034 0 0 -1 3.0487 0.4340 0.7929
75 1 Ar 4.14403 1.16227 0.04318 0 0 0 -0.0223 0.3195 0.0370
76 1 Ar 3.11323 1.50631 4.53980 0 0 -1 -1.8024 1.0605 -2.1185
77 1 Ar 3.89296 0.00518 1.54013 0 0 0 -0.5484 -0.4978 -0.8565
78 1 Ar 3.66632 1.06175 1.07140 0 0 0 0.7662 1.4645 -0.8768
79 1 Ar 4.13589 4.87452 2.52373 0 -1 0 2.2823 -0.6442 -1.3367
80 1 Ar 3.53216 1.88893 2.64014 0 0 0 -0.7328 0.5387 0.0174
81 1 Ar 3.57793 0.69148 2.90129 0 0 0 -1.0806 -1.6215 0.5580
82 1 Ar 4.34385 1.78272 3.29361 0 0 0 2.0492 0.5759 -0.5641
83 1 Ar 4.90052 0.03928 3.47657 0 0 0 -1.1843 -1.3824 0.1646
84 1 Ar 3.89804 1.08381 4.00089 0 0 0 0.7061 -0.2213 -0.7110
85 1 Ar 2.95225 2.63319 4.11107 0 0 -1 -1.8850 -0.5961 -0.1645
86 1 Ar 4.46292 3.53764 0.63549 0 0 0 0.9464 -1.2916 -1.2572
87 1 Ar 4.15749 2.94994 1.39487 0 0 0 -0.3287 -0.9920 0.5704
88 1 Ar 4.22743 4.95947 4.36338 0 0 -1 -0.8015 0.3483 0.4684
89 1 Ar 2.71417 1.77078 0.50990 0 0 0 -3.2804 0.2891 -1.4528
90 1 Ar 3.73433 1.97572 1.66149 0 0 0 1.3957 -0.0017 0.0596
91 1 Ar 0.49508 1.50417 3.13504 1 0 0 1.5383 -1.4277 1.9714
92 1 Ar 2.39960 2.51086 2.58490 0 0 0 -0.4490 0.4750 -1.6530
93 1 Ar 2.29226 1.83023 3.57075 0 0 0 2.4574 -1.8226 -1.6321
94 1 Ar 3.88238 3.09783 3.50891 0 0 0 -3.2905 0.8808 0.1089
95 1 Ar 4.90449 2.17456 5.02442 0 0 0 0.2771 -0.1770 -0.4068
96 1 Ar 2.79512 3.16091 3.23980 0 0 0 0.7684 -3.0395 2.2501
97 1 Ar 3.55082 4.28391 4.30575 0 0 -1 1.2725 -0.1625 0.8211
98 1 Ar 0.04067 0.28165 0.41970 1 1 0 -1.1857 1.3169 -2.7530
99 1 Ar 4.65799 4.36541 0.02129 0 0 0 -0.2043 0.0893 3.1784
100 1 Ar 3.82018 0.29832 0.45322 0 1 0 2.8097 -0.4171 -0.9564
101 1 Ar 3.61692 2.86850 2.32415 0 0 0 -1.0169 -0.5661 -1.0918
102 1 Ar 3.73751 4.33589 0.69460 0 0 0 -1.8959 0.5161 0.2130
103 1 Ar 2.76763 0.21467 1.26767 0 1 0 2.6436 1.1322 -2.2215
104 1 Ar 3.08457 4.29192 3.37393 0 0 0 -2.0697 -2.4009 1.9250
105 1 Ar 4.21730 3.60160 2.59364 0 0 0 -1.3432 -1.6619 0.8059
106 1 Ar 0.80548 4.67876 3.25761 1 0 0 2.4236 0.2852 0.4714
107 1 Ar 4.20778 2.35876 4.33264 0 0 0 -0.8228 -0.8971 -0.0730
108 1 Ar 4.23609 4.24557 3.53811 0 0 0 -1.2666 -0.2658 1.8063
ITEM: TIMESTEP
640
ITEM: NUMBER OF ATOMS
108
ITEM: BOX BOUNDS pp pp pp
0.0000000000000000e+00 5.0387885741475218e+00
0.0000000000000000e+00 5.0387885741475218e+00
0.0000000000000000e+00 5.0387885741475218e+00
ITEM: ATOMS id type element x y z ix iy iz vx vy vz
1 1 Ar 0.54797 1.39011 0.26898 0 0 0 0.4028 2.0165 -0.8349
2 1 Ar 0.78490 0.65423 1.08048 0 0 0 -0.5034 -0.9575 -0.0753
3 1 Ar 0.59915 4.75003 0.18283 0 -1 0 1.1857 -1.3595 0.3139
4 1 Ar 4.69504 1.22949 0.90718 -1 0 0 -1.2416 1.6115 -2.7064
5 1 Ar 0.08285 0.10007 1.86584 0 0 0 0.7861 1.8010 0.6825
6 1 Ar 4.39675 1.13108 1.85304 -1 0 0 -0.7975 -0.1978 3.7092
7 1 Ar 1.31979 0.49561 2.07339 0 0 0 2.4500 -0.4122 -1.5322
8 1 Ar 4.60260 0.71078 2.92346 -1 0 0 0.7439 -0.1342 -0.0804
9 1 Ar 0.24045 4.53227 4.28204 0 -1 0 -0.0930 1.1888 0.6047
10 1 Ar 1.83001 4.09266 3.74941 0 -1 0 0.8955 -1.0225 0.8794
11 1 Ar 1.31550 4.20526 4.77699 0 -1 0 -0.7960 0.2459 1.4847
12 1 Ar 0.86572 0.67053 4.68849 0 0 0 -3.7146 -1.0415 -0.5277
13 1 Ar 3.78504 2.19903 0.21256 -1 0 0 -0.8239 -0.4221 -1.1460
14 1 Ar 0.56229 2.81798 0.80009 0 0 0 0.3960 -0.4272 -0.8968
15 1 Ar 4.78333 2.22657 0.93959 -1 0 0 0.5037 -0.5170 0.0830
16 1 Ar 3.41974 4.35571 1.82132 -1 0 0 -0.4426 -0.1222 -1.4422
17 1 Ar 4.90817 2.11560 1.93453 -1 0 0 1.7410 -0.3792 1.0822
18 1 Ar 1.67732 2.23300 1.52797 0 0 0 0.2943 -1.3868 -2.0903
19 1 Ar 0.29797 1.08029 2.16633 0 0 0 0.5673 0.4966 -0.3754
20 1 Ar 0.42868 2.68696 3.26456 0 0 0 1.3614 0.9886 -2.2610
21 1 Ar 0.70131 0.43207 3.70593 0 0 0 0.1685 -0.6198 -0.1771
22 1 Ar 0.38010 1.84577 3.94766 0 0 0 0.6804 2.0081 -3.4110
23 1 Ar 0.72881 1.84652 1.28209 0 0 1 1.5640 0.3041 1.2020
24 1 Ar 4.85737 3.71442 3.21769 -1 0 0 -0.2707 -0.1001 -0.0738
25 1 Ar 4.48198 3.55532 4.52342 -1 0 -1 1.1621 0.1465 -0.0314
26 1 Ar 1.54987 3.34281 0.14263 0 0 0 0.1101 -2.1224 0.2168
27 1 Ar 0.94588 3.79152 0.80297 0 0 0 -0.5014 0.7610 1.1309
28 1 Ar 0.30935 4.43520 1.18233 0 0 0 1.5418 0.0487 -0.7315
29 1 Ar 0.16509 3.67742 1.78134 0 0 0 1.4819 1.6251 2.9001
30 1 Ar 0.92122 4.51532 2.00239 0 0 0 -0.7944 1.0773 -0.6224
31 1 Ar 0.18134 4.41016 2.58294 0 0 0 -1.3662 0.7189 1.2819
32 1 Ar 4.31187 4.08672 1.50048 -1 0 0 -1.3463 0.2070 -1.4162
33 1 Ar 4.25512 2.67588 2.73066 -1 0 0 -1.9124 0.1629 0.5249
34 1 Ar 0.77836 2.47767 2.32981 0 0 0 -0.9136 -2.1063 -0.5052
35 1 Ar 0.73182 2.66720 4.42386 0 0 0 1.0068 2.0932 -0.6483
36 1 Ar 0.35438 3.66305 4.94594 0 0 0 1.1859 -0.0261 -0.1882
37 1 Ar 2.06721 0.92019 4.49296 0 0 -1 -1.4251 0.4663 0.3137
38 1 Ar 3.15621 1.00714 0.11176 0 0 0 0.7962 -0.8538 0.1690
39 1 Ar 2.37121 4.30673 4.88725 0 -1 -1 -2.0622 0.3684 0.9667
40 1 Ar 1.62441 5.01197 1.27721 0 -1 0 -0.6687 -2.3724 -1.5327
41 1 Ar 2.44706 4.40297 1.80590 0 -1 0 1.6964 2.0388 2.2149
42 1 Ar 3.36068 0.76954 2.04354 0 0 0 -0.0124 -1.1859 0.4896
43 1 Ar 2.86721 4.92216 2.68042 0 -1 0 0.0913 -0.5764 -0.5513
44 1 Ar 1.79948 4.71935 2.50341 0 -1 0 1.2690 -1.7172 -3.1694
45 1 Ar 2.14359 0.10885 3.39987 0 0 0 1.0637 -0.7911 0.9478
46 1 Ar 2.63072 1.20030 2.70581 0 0 0 -1.3515 -0.3671 0.3069
47 1 Ar 2.37190 3.48237 4.51669 0 -1 0 -1.3605 0.4934 2.4323
48 1 Ar 1.79061 4.90092 4.38492 0 -1 0 -0.6670 4.3146 0.4090
49 1 Ar 2.04681 0.20358 0.42601 0 0 0 1.5982 0.4876 -0.4065
50 1 Ar 3.35697 3.08323 4.87913 0 0 -1 0.8508 -1.0631 0.9630
51 1 Ar 3.28087 3.50888 1.35410 0 0 0 -0.0982 -1.2820 0.3357
52 1 Ar 3.13267 2.48895 1.06510 0 0 0 -0.8840 0.6799 -0.0458
53 1 Ar 1.92135 1.21218 1.33536 0 0 0 0.1592 0.8847 -0.5789
54 1 Ar 2.90440 1.61726 1.66898 0 0 0 0.9336 -0.1565 0.9904
55 1 Ar 2.33097 0.43688 1.88899 0 0 0 1.7490 -1.3013 -1.9270
56 1 Ar 1.50520 3.61966 1.89307 0 0 0 -0.0756 1.5885 0.7175
57 1 Ar 1.61037 1.08958 3.52300 0 0 0 -0.7173 2.7448 -0.0668
58 1 Ar 1.46064 3.23655 3.19724 0 0 0 -1.7558 0.8039 -0.5634
59 1 Ar 1.54728 1.13262 0.46457 0 0 1 -1.6519 -1.8392 3.6496
60 1 Ar 1.60408 1.71609 4.35117 0 0 0 1.2946 0.0928 1.2597
61 1 Ar 1.21808 2.31334 0.25956 0 0 0 0.4126 -2.5662 0.1395
62 1 Ar 1.90747 4.17852 0.78536 0 0 0 0.4871 -0.0040 1.4499
63 1 Ar 2.66252 3.58216 0.60618 0 0 0 1.1517 1.4207 -0.1324
64 1 Ar 1.91801 2.97425 1.02990 0 0 0 0.7827 -0.0328 0.9133
65 1 Ar 1.56802 1.57275 2.63508 0 0 0 -1.4806 -2.0665 -0.4620
66 1 Ar 2.47919 3.34470 2.05407 0 0 0 0.3475 -0.5218 -0.6979
67 1 Ar 2.35412 3.94069 2.92371 0 0 0 0.3954 1.6235 0.1595
68 1 Ar 0.73473 3.54975 2.67420 0 0 0 0.2159 0.3447 1.0275
69 1 Ar 1.36401 2.26616 3.29109 0 0 0 1.2408 -0.7412 -1.2793
70 1 Ar 1.83933 2.75484 4.10164 0 0 0 -0.4757 1.2913 -1.0898
71 1 Ar 2.40416 2.69721 0.14480 0 0 1 -0.6741 0.7748 -0.1231
72 1 Ar 0.59309 3.55343 3.92455 0 0 0 -1.0867 2.3003 0.3553
73 1 Ar 2.97453 0.02348 4.22405 0 0 -1 -2.0881 -1.7509 -2.0856
74 1 Ar 4.96387 0.89093 4.11470 0 0 -1 -1.6081 0.5550 -2.1935
75 1 Ar 4.27179 1.38409 4.91321 0 0 -1 1.6216 0.3137 -1.3945
76 1 Ar 3.20623 1.49985 4.37503 0 0 -1 0.1609 0.0772 -2.0505
77 1 Ar 4.14121 0.30642 1.38341 0 0 0 2.5807 0.9224 0.5581
78 1 Ar 3.73574 1.38435 0.89406 0 0 0 0.5716 1.3611 0.4139
79 1 Ar 4.04592 4.84211 2.49965 0 -1 0 -1.1417 0.0262 0.0123
80 1 Ar 3.40143 1.81537 2.83927 0 0 0 1.4797 0.8825 1.4465
81 1 Ar 3.59064 0.44118 3.20360 0 0 0 -1.6562 -1.8446 1.0701
82 1 Ar 4.62803 1.61345 3.28531 0 0 0 0.6810 1.5737 0.7486
83 1 Ar 4.67768 4.77292 3.42064 0 -1 0 0.7838 -2.4495 0.9929
84 1 Ar 3.98433 1.09130 3.99539 0 0 0 1.8219 -0.2939 0.8233
85 1 Ar 3.03801 2.48734 4.08965 0 0 -1 3.2930 -1.2295 -1.7472
86 1 Ar 4.48661 3.12500 0.53968 0 0 0 -0.3904 -1.9099 -0.2729
87 1 Ar 4.39249 2.99150 1.67522 0 0 0 1.2728 0.7756 1.6277
88 1 Ar 4.44142 0.02698 4.44228 0 1 -1 0.0541 0.1026 0.5747
89 1 Ar 2.25138 1.76882 0.40724 0 0 0 0.4676 -1.0161 1.2389
90 1 Ar 3.85964 1.98940 1.71114 0 0 0 0.3279 1.1988 1.3860
91 1 Ar 0.58187 1.42880 3.05381 1 0 0 1.5595 0.1624 -0.6868
92 1 Ar 2.40506 2.14756 2.42371 0 0 0 -0.0351 -3.2885 -0.7782
93 1 Ar 2.41038 1.86838 3.52567 0 0 0 -1.2744 -1.1408 -1.4790
94 1 Ar 3.73486 3.12999 3.75094 0 0 0 -0.1747 -1.4538 1.5992
95 1 Ar 5.00708 2.18536 4.88370 0 0 0 -1.0768 -0.1035 -0.3470
96 1 Ar 2.52936 2.85724 3.17254 0 0 0 -1.7905 -0.2511 -0.3279
97 1 Ar 3.51570 4.15264 4.70294 0 0 -1 0.1177 0.1494 2.3879
98 1 Ar 5.00710 0.43882 0.32421 0 1 0 -0.8445 0.8762 1.5824
99 1 Ar 4.54698 4.29382 0.29994 0 0 0 -0.0141 -1.8872 0.5172
100 1 Ar 3.80448 0.24685 0.27419 0 1 0 -3.0798 0.8867 -1.8752
101 1 Ar 3.19738 2.73508 2.21059 0 0 0 0.1737 -1.0154 -0.2321
102 1 Ar 3.34017 4.30114 0.71616 0 0 0 -1.5121 1.1207 -0.8645
103 1 Ar 2.98513 0.29033 0.85643 0 1 0 -0.3915 -0.2734 -0.8596
104 1 Ar 3.02728 4.03255 3.69581 0 0 0 -0.9156 0.2429 1.1908
105 1 Ar 3.90422 3.78535 2.55263 0 0 0 -2.8796 2.1347 -1.6820
106 1 Ar 0.96252 4.71502 3.08022 1 0 0 -0.7652 -1.8567 -0.8947
107 1 Ar 3.93718 2.17579 4.12942 0 0 0 -0.3681 -1.0146 -1.1113
108 1 Ar 3.93513 4.21537 3.68153 0 0 0 0.2387 1.9899 0.8048
ITEM: TIMESTEP
680
ITEM: NUMBER OF ATOMS
108
ITEM: BOX BOUNDS pp pp pp
0.0000000000000000e+00 5.0387885741475218e+00
0.0000000000000000e+00 5.0387885741475218e+00
0.0000000000000000e+00 5.0387885741475218e+00
ITEM: ATOMS id type element x y z ix iy iz vx vy vz
1 1 Ar 0.38025 1.62306 0.13858 0 0 0 -0.9057 0.7592 -1.1057
2 1 Ar 0.47568 0.53726 1.16946 0 0 0 -1.0305 1.3370 -0.3154
3 1 Ar 0.78807 4.79377 0.37443 0 -1 0 -1.6549 -0.3001 -1.2833
4 1 Ar 4.65775 1.27017 0.87174 -1 0 0 -0.3070 -0.5611 1.4499
5 1 Ar 5.03024 0.38481 2.15291 -1 0 0 -1.3632 1.2509 -0.1937
6 1 Ar 4.13524 1.29573 2.52438 -1 0 0 -1.4159 0.6091 2.2923
7 1 Ar 1.40393 0.36862 1.84137 0 0 0 -1.0974 -0.1236 -1.0269
8 1 Ar 4.82920 0.54275 3.03723 -1 0 0 0.0288 1.3163 2.2044
9 1 Ar 0.45603 4.57543 4.50075 0 -1 0 0.4497 -1.9414 0.9302
10 1 Ar 1.76315 4.13695 3.88179 0 -1 0 0.2958 1.4705 -0.6183
11 1 Ar 1.40802 3.98821 4.90518 0 -1 0 -0.3211 -0.9924 2.0961
12 1 Ar 0.40505 0.65018 4.74566 0 0 0 -0.8485 2.2338 0.4569
13 1 Ar 3.70762 1.98357 5.03532 -1 0 -1 0.0607 -0.7337 -1.7638
14 1 Ar 0.59391 2.74384 0.65785 0 0 0 -0.5600 -1.4577 -0.1561
15 1 Ar 4.81736 2.38949 1.16327 -1 0 0 -0.3686 1.3419 1.8293
16 1 Ar 3.68123 4.85096 1.62508 -1 0 0 0.4390 1.4935 0.2005
17 1 Ar 0.01636 1.97611 2.16170 0 0 0 3.1620 0.3675 -1.5557
18 1 Ar 1.81885 2.19405 1.46935 0 0 0 0.4581 -1.4023 1.1910
19 1 Ar 0.62832 1.14055 2.02486 0 0 0 1.1705 -1.1892 -0.4114
20 1 Ar 0.41364 2.77017 3.08044 0 0 0 -0.8443 -1.3562 -0.5184
21 1 Ar 0.83654 0.42792 3.45261 0 0 0 -0.5322 3.0263 -1.7815
22 1 Ar 0.62815 2.13518 3.92155 0 0 0 0.9461 -0.6734 1.1473
23 1 Ar 0.70274 1.81536 1.10227 0 0 1 -0.5563 0.4725 -2.7706
24 1 Ar 4.60401 3.53157 3.27541 -1 0 0 0.7410 1.2989 0.2282
25 1 Ar 4.67159 3.60013 4.41065 -1 0 -1 1.9244 -0.0188 -1.4364
26 1 Ar 1.47932 2.96788 0.18537 0 0 0 1.7527 -0.9994 0.4536
27 1 Ar 1.00656 3.74280 1.02259 0 0 0 -0.4126 -0.0792 0.8177
28 1 Ar 4.97013 4.67662 1.21282 -1 0 0 -1.4324 -0.0922 0.3974
29 1 Ar 0.23784 3.79487 1.63114 0 0 0 1.3992 -0.9780 -1.6373
30 1 Ar 0.71631 4.64699 1.98483 0 0 0 -1.1745 0.1073 0.9068
31 1 Ar 4.79830 4.36576 2.40370 -1 0 0 -0.2746 -3.0792 -0.9909
32 1 Ar 4.30894 3.91226 1.26816 -1 0 0 -2.2611 -2.3003 -0.0296
33 1 Ar 4.08499 2.81468 2.87486 -1 0 0 -0.9596 -0.1660 -0.1573
34 1 Ar 1.11119 2.29116 2.17840 0 0 0 -0.0216 2.2699 -1.6385
35 1 Ar 0.84837 3.04104 4.31378 0 0 0 -0.3653 2.1741 -1.0329
36 1 Ar 0.44825 3.61078 0.08365 0 0 1 -0.4026 0.2762 0.9625
37 1 Ar 2.22302 1.44304 4.71151 0 0 -1 -0.1795 2.9791 1.1592
38 1 Ar 3.19505 1.13246 0.10675 0 0 0 2.8046 0.3160 -1.7246
39 1 Ar 2.41000 4.46251 5.02229 0 -1 -1 1.0981 -0.3553 0.6159
40 1 Ar 1.45345 4.90195 0.97755 0 -1 0 3.6538 -0.0123 0.3477
41 1 Ar 2.52375 4.25563 1.66781 0 -1 0 1.4786 -0.6253 0.7792
42 1 Ar 3.45110 0.65210 2.10789 0 0 0 -0.5745 2.1003 -0.6873
43 1 Ar 2.98590 4.75740 2.58833 0 -1 0 1.5415 -2.8283 0.6968
44 1 Ar 1.79670 4.69072 2.43751 0 -1 0 1.0365 -1.1197 -1.2954
45 1 Ar 2.00917 5.02822 3.32471 0 -1 0 -1.5606 -1.1726 2.2739
46 1 Ar 2.42981 0.67635 2.75441 0 0 0 -0.1644 -0.4540 0.0266
47 1 Ar 2.32685 3.41847 4.71869 0 -1 0 -0.7475 -0.8156 1.9460
48 1 Ar 1.27487 0.03348 4.31069 0 0 0 -1.8362 -0.8019 0.5355
49 1 Ar 2.17236 0.60503 0.32122 0 0 0 1.1056 1.6347 0.4172
50 1 Ar 3.54797 3.06767 4.80677 0 0 -1 0.4029 -1.4417 -2.7231
51 1 Ar 3.57711 3.32964 1.54242 0 0 0 1.2259 -0.5035 0.5448
52 1 Ar 2.92135 2.38541 1.02395 0 0 0 0.0628 -0.6968 1.0898
53 1 Ar 2.10742 1.13709 1.52422 0 0 0 -0.3515 -1.8748 1.5761
54 1 Ar 3.03296 1.51810 1.88643 0 0 0 0.3141 0.1279 2.6646
55 1 Ar 2.46173 0.18564 1.90218 0 0 0 -1.6669 -1.4299 -1.0486
56 1 Ar 1.44701 3.83073 1.95355 0 0 0 -0.0604 0.2209 0.3630
57 1 Ar 1.40715 1.15740 3.80191 0 0 0 -0.4106 -0.5522 2.3238
58 1 Ar 1.48603 3.49019 3.14823 0 0 0 -0.5590 1.5125 -1.7756
59 1 Ar 1.11631 0.88873 0.47016 0 0 1 -2.4811 0.0392 -0.6644
60 1 Ar 1.55534 2.01502 4.39210 0 0 0 -2.3038 1.3081 -0.4304
61 1 Ar 1.51529 1.96374 0.59159 0 0 0 -0.2017 -0.7255 0.9452
62 1 Ar 1.94133 4.07012 0.72631 0 0 0 -0.7965 0.1668 -3.0227
63 1 Ar 2.87803 3.54543 0.51980 0 0 0 0.7761 -1.1955 1.9933
64 1 Ar 2.11662 3.04336 1.07820 0 0 0 1.0470 0.6773 -1.7936
65 1 Ar 1.54710 1.36497 2.24681 0 0 0 0.8546 -1.9264 0.5873
66 1 Ar 2.45112 3.31562 2.08306 0 0 0 -0.2644 -0.4483 0.3612
67 1 Ar 2.44781 3.93822 2.84199 0 0 0 -0.1906 -0.7032 0.8959
68 1 Ar 0.52030 3.75345 2.68986 0 0 0 -2.4218 1.0834 -2.4878
69 1 Ar 1.43760 2.20866 3.14800 0 0 0 0.0628 0.3838 0.5409
70 1 Ar 1.92661 2.94677 3.96101 0 0 0 0.5760 1.8821 -1.2108
71 1 Ar 2.43963 2.41447 0.06409 0 0 1 -0.0941 -1.5425 -1.9500
72 1 Ar 0.57962 3.88921 3.77680 0 0 0 -0.0364 -0.0404 -0.8174
73 1 Ar 2.84191 4.90354 4.31471 0 -1 -1 0.3629 0.2929 1.6224
74 1 Ar 0.12133 1.10832 3.78605 1 0 -1 0.1932 1.9920 0.2194
75 1 Ar 4.55129 1.10164 4.69264 0 0 -1 1.0259 -2.5685 -0.8449
76 1 Ar 2.99915 1.33494 3.99697 0 0 -1 0.9231 -1.5923 -1.1567
77 1 Ar 4.34712 0.38011 1.26428 0 0 0 -0.6548 2.8766 -0.4142
78 1 Ar 3.63710 1.56346 0.93588 0 0 0 0.5782 0.2186 -0.1306
79 1 Ar 4.00730 4.98987 2.65850 0 -1 0 -0.1373 0.6437 3.0002
80 1 Ar 3.59036 1.83262 3.21207 0 0 0 -0.1806 -0.6374 2.3757
81 1 Ar 3.29107 0.10077 3.44179 0 0 0 -1.4932 -1.8936 0.1200
82 1 Ar 4.72278 1.90920 3.03503 0 0 0 0.6456 1.1851 1.3698
83 1 Ar 5.02749 4.79858 3.60445 0 -1 0 2.0635 -1.9766 0.2048
84 1 Ar 3.93398 0.94610 3.81393 0 0 0 1.2392 0.2309 -0.6804
85 1 Ar 2.83326 2.62059 3.85817 0 0 -1 0.3693 1.2729 0.2220
86 1 Ar 4.30785 3.08173 0.38706 0 0 0 -0.4981 1.1534 0.8028
87 1 Ar 4.50950 3.11611 1.94915 0 0 0 0.2214 -0.0011 1.5959
88 1 Ar 4.50954 0.12551 4.36406 0 1 -1 0.5477 1.0926 -0.4121
89 1 Ar 2.39898 1.58019 0.74723 0 0 0 2.3469 -0.3217 0.2833
90 1 Ar 3.96529 2.17824 1.74549 0 0 0 -1.4641 0.7262 -0.9069
91 1 Ar 0.61636 1.38477 3.02214 1 0 0 -0.1783 0.4223 -0.7196
92 1 Ar 2.26351 2.09787 2.36936 0 0 0 0.4433 1.2339 -0.0001
93 1 Ar 2.37943 1.73341 3.29202 0 0 0 -0.5122 -0.4394 -2.0332
94 1 Ar 3.83848 3.20937 3.85714 0 0 0 -1.7047 -0.2647 0.3956
95 1 Ar 4.88104 2.53588 4.83122 0 0 0 1.1951 2.6580 -0.0861
96 1 Ar 2.35096 2.86514 2.95169 0 0 0 -0.3813 0.3809 -1.5379
97 1 Ar 3.57713 4.08861 4.81744 0 0 -1 -0.0441 -0.8099 0.4651
98 1 Ar 4.72368 0.12622 0.36532 0 1 0 -2.0742 -2.4720 -1.5295
99 1 Ar 4.61837 4.10942 0.19064 0 0 0 0.4993 1.2255 -1.1967
100 1 Ar 3.58295 0.10178 0.02999 0 1 0 -0.9766 0.4395 -1.0474
101 1 Ar 3.10720 2.63078 2.34404 0 0 0 -0.1737 -0.8567 1.1183
102 1 Ar 3.24820 4.39312 0.72273 0 0 0 -0.4860 -0.5572 0.9411
103 1 Ar 3.13826 0.56936 0.90110 0 1 0 1.8146 2.1435 0.8689
104 1 Ar 2.91952 3.79681 3.82949 0 0 0 1.4900 -1.5609 -1.0726
105 1 Ar 3.43411 3.80378 2.49356 0 0 0 -2.0739 -0.5582 0.2505
106 1 Ar 1.15668 4.50296 3.27309 1 0 0 1.9669 -0.9373 1.0118
107 1 Ar 4.28022 2.00930 4.14428 0 0 0 0.1129 -0.2440 -0.5981
108 1 Ar 3.84537 4.39562 3.90118 0 0 0 0.1365 0.9756 -0.6929
ITEM: TIMESTEP
720
ITEM: NUMBER OF ATOMS
108
ITEM: BOX BOUNDS pp pp pp
0.0000000000000000e+00 5.0387885741475218e+00
0.0000000000000000e+00 5.0387885741475218e+00
0.0000000000000000e+00 5.0387885741475218e+00
ITEM: ATOMS id type element x y z ix iy iz vx vy vz
1 1 Ar 0.20001 1.82540 4.84402 0 0 -1 0.1298 -1.1583 -0.8421
2 1 Ar 0.11306 0.62439 1.03602 0 0 0 -0.7776 1.9218 0.3469
3 1 Ar 0.48590 4.84708 0.52499 0 -1 0 -0.6566 -0.5160 0.2388
4 1 Ar 4.72668 1.71189 0.70926 -1 0 0 2.6331 2.3271 -2.0703
5 1 Ar 4.68512 0.35958 2.14651 -1 0 0 -1.1772 -0.7303 1.8576
6 1 Ar 4.01465 1.32033 2.79013 -1 0 0 -0.4788 -0.0485 0.6640
7 1 Ar 1.35931 0.25793 1.77942 0 0 0 0.9480 -1.2308 -0.4016
8 1 Ar 4.91173 0.70448 3.15563 -1 0 0 0.2285 1.3008 -0.9611
9 1 Ar 0.29701 4.32656 4.47545 0 -1 0 0.0258 1.1367 -0.5123
10 1 Ar 2.20106 4.23045 4.27820 0 -1 0 1.3610 3.1305 0.4895
11 1 Ar 1.25728 3.99577 4.78561 0 -1 0 0.4060 1.4347 -0.1529
12 1 Ar 0.44040 0.51221 4.62357 0 0 0 -0.6547 -1.6524 0.4116
13 1 Ar 3.78182 2.03770 0.03694 -1 0 0 -1.4082 2.1295 2.2724
14 1 Ar 0.58072 2.55811 0.65011 0 0 0 -0.4579 -1.8152 1.1229
15 1 Ar 4.69303 2.69292 1.25067 -1 0 0 -0.5246 0.9948 -0.4974
16 1 Ar 3.68881 4.78864 1.72397 -1 0 0 -0.0104 2.2711 -1.3159
17 1 Ar 0.23733 2.18343 1.94933 0 0 0 -0.9642 2.5517 -0.2507
18 1 Ar 1.81873 1.90147 1.23329 0 0 0 -1.3050 -1.8471 -0.8627
19 1 Ar 0.62348 1.08599 1.95412 0 0 0 -0.4140 -1.1856 0.8198
20 1 Ar 0.48204 2.78087 2.86857 0 0 0 0.7724 0.7335 -1.4725
21 1 Ar 0.89419 0.61130 3.06335 0 0 0 1.9503 0.3275 -1.5436
22 1 Ar 0.47832 2.42541 3.86164 0 0 0 -0.6750 2.4040 -0.7316
23 1 Ar 0.85459 1.67985 1.08521 0 0 1 2.9848 0.3210 0.0372
24 1 Ar 4.61335 3.89309 3.01245 -1 0 0 -0.6581 1.3339 -1.6613
25 1 Ar 4.79981 3.46174 4.04139 -1 0 -1 1.8514 0.1485 -1.4198
26 1 Ar 1.44360 2.97280 0.25498 0 0 0 -0.6109 1.7639 -0.3678
27 1 Ar 1.09931 3.59632 0.88260 0 0 0 0.5259 -0.6193 -0.6665
28 1 Ar 4.85409 4.69469 1.31313 -1 0 0 -0.5081 0.3156 0.5478
29 1 Ar 0.14321 3.50630 1.40188 0 0 0 -0.1971 -0.3112 -2.2649
30 1 Ar 0.46552 4.66036 2.10533 0 0 0 -2.3764 0.0951 -1.0170
31 1 Ar 4.24471 4.08749 2.19653 -1 0 0 -0.8937 -2.5224 1.4996
32 1 Ar 4.07511 3.96683 1.17533 -1 0 0 -2.1340 -0.1491 -1.6476
33 1 Ar 4.13675 2.52260 2.86752 -1 0 0 -0.7831 -1.9960 -0.4148
34 1 Ar 1.17544 2.83056 2.06598 0 0 0 0.0856 -0.8403 0.4524
35 1 Ar 0.86608 3.11158 4.46316 0 0 0 -0.8196 0.4910 1.5281
36 1 Ar 0.24532 3.58989 0.30959 0 0 1 -1.6064 0.3167 0.9130
37 1 Ar 2.30344 1.32363 4.63883 0 0 -1 2.1075 -0.6392 -1.4574
38 1 Ar 3.28598 1.03750 4.81350 0 0 -1 -2.1192 -0.5652 0.0471
39 1 Ar 2.67551 4.50071 0.09337 0 -1 0 0.0067 1.8481 0.0252
40 1 Ar 1.97121 4.91203 0.85991 0 -1 0 -0.1833 -1.4270 -0.4432
41 1 Ar 2.87761 3.94324 1.64090 0 -1 0 0.5921 -0.5283 0.2339
42 1 Ar 3.40227 0.61687 2.21104 0 0 0 0.8644 -0.9047 1.9125
43 1 Ar 3.04032 4.56850 2.55542 0 -1 0 -0.3443 -2.0232 1.9569
44 1 Ar 1.90886 4.63035 2.36179 0 -1 0 0.6162 0.9357 -1.2653
45 1 Ar 2.05156 0.18951 3.76787 0 0 0 -0.6330 1.7870 0.3127
46 1 Ar 2.49512 0.64740 2.66899 0 0 0 -0.8747 0.2708 -2.3698
47 1 Ar 2.41632 3.47314 4.99103 0 -1 0 1.0063 -1.1577 2.0857
48 1 Ar 1.21502 4.97398 4.33914 0 -1 0 0.8330 -1.6955 -0.2908
49 1 Ar 2.40185 0.65184 0.33839 0 0 0 2.0367 0.6863 -1.4760
50 1 Ar 3.41790 3.05112 4.73341 0 0 -1 0.9190 0.2479 -1.0959
51 1 Ar 3.43303 3.22353 1.69730 0 0 0 2.3032 -0.6926 1.0944
52 1 Ar 2.86817 2.29740 1.26044 0 0 0 -1.0512 -1.2530 1.1396
53 1 Ar 2.22465 1.02626 1.42900 0 0 0 0.9885 -1.5375 -0.2933
54 1 Ar 3.04065 1.54403 2.04702 0 0 0 -0.3562 -1.6286 -0.6721
55 1 Ar 2.74587 0.01973 1.73395 0 0 0 1.0710 -0.3262 -0.2089
56 1 Ar 1.40573 3.75445 1.76963 0 0 0 1.2381 3.5847 -2.0544
57 1 Ar 1.34743 1.15750 4.27860 0 0 0 -1.8241 -0.2284 1.6035
58 1 Ar 1.50626 3.41678 2.83899 0 0 0 2.1154 -1.9239 -1.7046
59 1 Ar 1.14100 0.91068 0.49532 0 0 1 0.7286 -2.2236 0.2125
60 1 Ar 1.58550 2.29097 4.36837 0 0 0 1.8830 -1.1799 -1.9970
61 1 Ar 1.63011 1.79179 0.20390 0 0 0 0.8690 0.1846 -2.3673
62 1 Ar 2.24606 3.94133 0.90656 0 0 0 2.0653 -1.1997 1.5410
63 1 Ar 3.34056 3.25688 0.69379 0 0 0 0.3883 -0.1623 0.3462
64 1 Ar 2.03174 2.80342 1.00783 0 0 0 -0.3258 0.0280 -0.7064
65 1 Ar 1.58674 1.20037 2.85405 0 0 0 -0.4345 -0.1000 2.1503
66 1 Ar 2.34042 3.05927 2.00169 0 0 0 -0.1876 -0.8255 1.2944
67 1 Ar 2.24124 4.06712 3.16819 0 0 0 -0.5002 1.5075 1.9858
68 1 Ar 0.42872 3.64470 2.38326 0 0 0 -0.0684 1.0053 -2.3500
69 1 Ar 1.42098 2.34891 3.31600 0 0 0 0.5100 1.2268 1.0713
70 1 Ar 1.68923 3.27503 3.88896 0 0 0 -0.3597 1.4901 -0.0213
71 1 Ar 2.56596 2.43762 5.01264 0 0 0 -0.6894 -1.9130 0.8737
72 1 Ar 0.69271 3.56419 3.48463 0 0 0 0.0718 -1.2924 0.5706
73 1 Ar 2.78521 0.12435 4.41732 0 0 -1 0.0482 0.8808 1.9058
74 1 Ar 4.93292 1.20740 4.09227 0 0 -1 -1.3614 -1.0609 -0.5260
75 1 Ar 4.33687 1.18646 4.93920 0 0 -1 0.7920 0.6359 1.6594
76 1 Ar 2.88041 0.90501 3.87027 0 0 -1 -1.8017 -1.0821 -1.0703
77 1 Ar 4.16717 0.69099 1.26623 0 0 0 -0.4494 1.2811 -0.6547
78 1 Ar 3.73866 1.66249 0.90881 0 0 0 -0.9600 0.1192 1.3234
79 1 Ar 4.12811 0.03727 3.06434 0 0 0 0.4452 0.0984 0.6418
80 1 Ar 3.48511 1.95229 3.49165 0 0 0 0.3258 -0.6016 -0.2664
81 1 Ar 3.08917 0.18089 3.29966 0 0 0 1.1255 -0.6026 0.0679
82 1 Ar 4.81905 1.89702 3.14030 0 0 0 1.4428 -2.5945 -0.5261
83 1 Ar 0.09649 4.73133 3.33828 1 -1 0 -0.3949 0.3607 -1.9801
84 1 Ar 3.92235 1.03545 3.84018 0 0 0 -1.2378 0.6395 1.2095
85 1 Ar 2.86852 2.66296 3.89692 0 0 -1 -1.9115 0.9524 0.9511
86 1 Ar 4.25335 3.05178 0.44543 0 0 0 1.2810 -2.0896 -1.8702
87 1 Ar 4.66168 3.15962 2.29121 0 0 0 0.3063 -0.0408 0.4062
88 1 Ar 4.60607 0.09677 4.11551 0 1 -1 0.5064 1.0319 -0.1505
89 1 Ar 2.81856 1.53744 0.60610 0 0 0 -0.9523 0.0879 -2.5308
90 1 Ar 3.97246 2.15903 1.82507 0 0 0 1.5529 -0.8280 1.9643
91 1 Ar 0.68664 1.81205 2.81935 1 0 0 1.0694 1.2320 -0.4425
92 1 Ar 1.96328 2.20709 2.36825 0 0 0 -3.3379 -1.0971 -0.4822
93 1 Ar 2.41713 1.57460 3.37485 0 0 0 0.6508 0.8456 1.4377
94 1 Ar 3.94197 3.27246 3.72058 0 0 0 -2.1350 0.0050 -0.3544
95 1 Ar 0.00055 2.75632 4.74444 1 0 0 -2.1544 0.1309 0.4760
96 1 Ar 2.35242 2.95687 3.10913 0 0 0 0.4440 1.2449 1.4046
97 1 Ar 3.48629 3.96916 4.88965 0 0 -1 -1.1149 1.2043 -0.1289
98 1 Ar 4.59873 0.38425 0.32504 0 1 0 1.0336 0.9401 0.4487
99 1 Ar 4.42535 4.07583 0.08463 0 0 0 -1.2176 0.7417 -0.3347
100 1 Ar 3.59985 5.00557 0.04975 0 0 0 0.0464 -1.4136 -0.0779
101 1 Ar 3.02577 2.46066 2.59568 0 0 0 -1.3340 -2.3906 1.4680
102 1 Ar 3.27463 4.56774 0.85392 0 0 0 0.7158 0.6961 0.8103
103 1 Ar 3.07214 0.63568 1.10564 0 1 0 -1.6662 -0.3764 -0.8240
104 1 Ar 3.01540 3.72849 3.84761 0 0 0 1.2617 -0.1958 1.2128
105 1 Ar 3.31786 3.48858 2.75662 0 0 0 0.1092 1.1210 3.7151
106 1 Ar 1.04577 4.65337 2.92141 1 0 0 1.1708 0.0929 -0.6399
107 1 Ar 4.38816 2.08147 4.16711 0 0 0 0.9040 1.7860 0.3777
108 1 Ar 3.95723 4.27804 3.74258 0 0 0 -0.2768 -1.9568 -0.4316
ITEM: TIMESTEP
760
ITEM: NUMBER OF ATOMS
108
ITEM: BOX BOUNDS pp pp pp
0.0000000000000000e+00 5.0387885741475218e+00
0.0000000000000000e+00 5.0387885741475218e+00
0.0000000000000000e+00 5.0387885741475218e+00
ITEM: ATOMS id type element x y z ix iy iz vx vy vz
1 1 Ar 0.39953 1.72913 4.65539 0 0 -1 0.0912 1.0115 0.0780
2 1 Ar 0.14856 0.84190 1.21956 0 0 0 2.8250 -1.1193 0.1579
3 1 Ar 0.54997 4.57318 0.50507 0 -1 0 1.2170 -2.1776 -0.0786
4 1 Ar 4.88244 1.88912 0.68318 -1 0 0 0.7344 0.2087 1.3028
5 1 Ar 4.51952 0.40455 2.15458 -1 0 0 -0.7221 1.4677 -1.6968
6 1 Ar 3.99707 1.35793 2.92099 -1 0 0 0.1164 -0.4982 1.6788
7 1 Ar 1.17900 0.29631 1.77242 0 0 0 -1.8589 1.6973 1.6110
8 1 Ar 4.96362 0.80966 3.04307 -1 0 0 0.3994 1.5856 0.9431
9 1 Ar 0.24592 4.44366 4.37718 0 -1 0 -0.2549 -0.2502 -0.4115
10 1 Ar 2.15913 4.59019 4.34406 0 -1 0 -1.1454 1.0024 -0.0875
11 1 Ar 1.51033 4.03000 5.02384 0 -1 0 2.4863 0.6505 0.5820
12 1 Ar 0.45546 0.38715 4.78344 0 0 0 0.5689 0.2020 0.2288
13 1 Ar 3.36415 2.11614 0.34099 -1 0 0 -1.2766 -0.7894 1.3159
14 1 Ar 0.73164 2.89138 0.73469 0 0 0 0.7315 2.2755 -0.8882
15 1 Ar 4.41004 2.64690 1.23085 -1 0 0 -0.6949 -0.2329 -0.0667
16 1 Ar 3.70402 4.95422 1.67309 -1 0 0 -1.4913 -0.5684 -0.1615
17 1 Ar 0.19365 2.22110 1.85152 0 0 0 0.2189 -1.9139 -1.0130
18 1 Ar 2.01460 1.73632 1.18062 0 0 0 -0.5063 -0.5656 -0.7852
19 1 Ar 0.55062 0.92637 2.19724 0 0 0 -1.1520 0.2055 -0.1004
20 1 Ar 0.54417 2.93151 2.73018 0 0 0 1.7686 0.3053 -0.6259
21 1 Ar 1.05429 0.41189 3.00958 0 0 0 3.2745 -0.9704 1.1249
22 1 Ar 0.30220 2.63405 3.70843 0 0 0 0.2001 1.8320 0.8482
23 1 Ar 0.93613 1.68522 1.11837 0 0 1 1.7527 1.7911 0.1481
24 1 Ar 4.74910 3.81781 3.02786 -1 0 0 0.5814 0.2926 -0.5598
25 1 Ar 4.79616 3.53849 4.12463 -1 0 -1 -2.0665 0.1204 1.5498
26 1 Ar 1.61656 2.90621 4.92495 0 0 -1 -0.8714 1.3565 -0.2592
27 1 Ar 1.11703 3.75374 0.84894 0 0 0 0.4633 1.3538 1.4556
28 1 Ar 4.65258 4.60827 1.04503 -1 0 0 0.3655 -1.4073 -0.5453
29 1 Ar 0.02783 3.72414 1.34630 0 0 0 -1.4774 0.7428 0.2956
30 1 Ar 0.39652 4.92999 2.05592 0 0 0 0.6863 0.6410 -0.6145
31 1 Ar 3.98353 3.95042 2.01932 -1 0 0 1.8031 -0.1938 0.5262
32 1 Ar 4.04493 3.87310 0.95802 -1 0 0 0.0884 1.1058 0.8828
33 1 Ar 4.00236 2.33876 2.78616 -1 0 0 0.1115 -0.6520 -2.0327
34 1 Ar 1.13044 2.76095 1.59041 0 0 0 1.0053 0.3404 -2.3632
35 1 Ar 0.85400 3.50707 4.42402 0 0 0 1.7798 2.2548 -1.3775
36 1 Ar 0.07073 3.62886 0.12800 0 0 1 -0.6476 0.1648 -0.7448
37 1 Ar 2.38689 1.37349 4.37304 0 0 -1 1.1122 -1.2538 -0.4125
38 1 Ar 3.42186 1.06078 5.00133 0 0 -1 -0.4922 1.8237 0.1243
39 1 Ar 2.37683 4.46781 0.24199 0 -1 0 -0.9135 -0.8805 0.4381
40 1 Ar 1.76480 4.83484 0.89303 0 -1 0 0.4360 -0.9220 -0.9659
41 1 Ar 2.90941 3.84354 1.75948 0 -1 0 -0.6318 -1.6976 0.7466
42 1 Ar 3.45148 0.37879 2.63665 0 0 0 -1.5019 -1.1719 1.6379
43 1 Ar 3.03160 4.40470 2.73810 0 -1 0 1.9509 -0.7311 -0.3536
44 1 Ar 2.08397 4.78308 2.52462 0 -1 0 -0.9615 1.8110 -0.5089
45 1 Ar 1.85299 0.43216 3.59832 0 0 0 -0.0241 -2.2464 0.3250
46 1 Ar 2.22820 0.67413 2.46942 0 0 0 -1.1641 0.9601 1.0760
47 1 Ar 2.56021 3.46723 4.96225 0 -1 0 -0.5288 1.4964 -1.5716
48 1 Ar 1.19517 4.90728 4.14652 0 -1 0 -1.7978 0.1192 -1.0801
49 1 Ar 2.16796 0.48640 0.23846 0 0 0 -0.7658 -0.2563 -0.6501
50 1 Ar 3.55544 3.13039 4.63411 0 0 -1 -0.6805 1.9998 0.5411
51 1 Ar 3.62354 2.74151 1.94837 0 0 0 -1.7463 -1.3731 1.4686
52 1 Ar 2.87731 2.38701 1.57377 0 0 0 -0.6501 0.8772 0.4442
53 1 Ar 2.11437 0.70922 1.27063 0 0 0 -1.1833 -0.2021 -3.0824
54 1 Ar 2.99724 1.16164 1.93219 0 0 0 0.0603 -2.5618 -0.4620
55 1 Ar 2.76424 0.00256 1.68445 0 0 0 -0.6197 0.5352 1.0545
56 1 Ar 1.58025 4.22702 1.69426 0 0 0 -0.4306 -0.6523 2.0786
57 1 Ar 1.23356 0.93513 4.47584 0 0 0 2.8177 -2.2642 -0.2547
58 1 Ar 1.56261 3.48552 2.52119 0 0 0 2.5385 0.5393 -1.2101
59 1 Ar 1.21010 0.44236 0.45414 0 0 1 -2.7417 -0.2213 -1.0583
60 1 Ar 1.60157 2.30606 4.20407 0 0 0 -3.9526 0.3905 -0.8779
61 1 Ar 1.53010 1.70700 0.21246 0 0 0 -1.3134 -0.7857 1.0839
62 1 Ar 2.32863 3.88965 1.03432 0 0 0 -1.3679 0.6066 -0.8748
63 1 Ar 3.10068 3.10103 0.88104 0 0 0 -1.6164 -1.4830 1.9643
64 1 Ar 2.00520 2.77895 1.02585 0 0 0 -0.4313 -0.9622 0.2023
65 1 Ar 1.82094 1.36418 3.22740 0 0 0 0.3729 3.1634 0.7045
66 1 Ar 2.41535 2.99398 2.12862 0 0 0 0.0786 0.3679 1.0259
67 1 Ar 2.11730 4.24334 3.39694 0 0 0 -0.4833 -0.4923 1.2846
68 1 Ar 0.75615 3.84236 2.12093 0 0 0 -0.6303 1.3550 -1.7494
69 1 Ar 1.46895 2.70114 3.14125 0 0 0 0.0462 0.9881 -1.0200
70 1 Ar 1.83629 3.57035 4.10566 0 0 0 0.6155 0.4280 2.4198
71 1 Ar 2.44822 2.27833 0.15760 0 0 1 -0.4467 -2.1445 2.6072
72 1 Ar 0.95571 3.61939 3.39583 0 0 0 0.3073 -0.5478 0.4020
73 1 Ar 3.01110 0.27527 4.36282 0 0 -1 -0.3309 2.7727 1.3614
74 1 Ar 4.86219 1.14277 3.99980 0 0 -1 0.6124 -0.2779 -0.0427
75 1 Ar 4.32531 1.55512 4.95294 0 0 -1 0.6350 1.8521 -1.2305
76 1 Ar 2.85802 1.03533 3.38872 0 0 -1 0.0609 1.4105 -3.7108
77 1 Ar 4.19589 0.83524 1.21509 0 0 0 -2.6237 0.4090 -0.1686
78 1 Ar 3.57151 1.71046 1.22395 0 0 0 0.1260 -0.1073 0.0787
79 1 Ar 4.26451 4.97055 3.20321 0 -1 0 0.5946 -1.1411 -0.3143
80 1 Ar 3.35530 1.88587 3.77631 0 0 0 -1.0817 0.0526 2.4665
81 1 Ar 3.20966 4.94017 3.54485 0 -1 0 0.5147 -1.7670 0.3160
82 1 Ar 4.92936 1.91428 3.16887 0 0 0 -0.6320 0.6050 -1.3962
83 1 Ar 0.25748 4.75894 3.09514 1 -1 0 0.8159 -2.0326 0.2655
84 1 Ar 3.84476 0.92831 3.98273 0 0 0 0.3048 -1.5452 -0.4046
85 1 Ar 2.76287 2.82607 4.18684 0 0 -1 1.1055 1.5032 0.7312
86 1 Ar 4.12889 3.10991 0.32782 0 0 0 1.2723 -0.4852 -0.8356
87 1 Ar 4.68003 3.13325 2.36974 0 0 0 -0.3389 0.6570 -0.2433
88 1 Ar 4.46280 0.08747 4.18857 0 1 -1 -0.8534 -0.9480 2.0617
89 1 Ar 2.68814 1.38336 0.55031 0 0 0 -0.3412 -1.6190 0.5626
90 1 Ar 4.34088 1.75033 2.02041 0 0 0 2.6274 -3.3353 -0.2057
91 1 Ar 0.79463 1.79945 2.67816 1 0 0 -0.8730 0.3292 0.0155
92 1 Ar 1.89613 1.94463 2.10308 0 0 0 1.9843 -0.1830 -1.2889
93 1 Ar 2.40455 2.18988 3.42569 0 0 0 -0.7615 1.4542 -1.5320
94 1 Ar 3.87299 2.88818 3.72434 0 0 0 0.3458 0.4298 0.9513
95 1 Ar 5.01613 2.57878 4.75724 0 0 0 -0.4290 -1.1927 1.4028
96 1 Ar 2.43822 3.17434 3.22647 0 0 0 -1.0036 0.7788 -0.4997
97 1 Ar 3.31637 4.13882 4.96949 0 0 -1 1.3054 1.1352 1.2446
98 1 Ar 4.71904 0.22733 0.32382 0 1 0 0.9881 1.8891 -0.1205
99 1 Ar 4.36046 4.32443 5.02025 0 0 -1 -0.0085 0.1820 -1.1309
100 1 Ar 3.74034 0.09152 4.94394 0 1 -1 0.3043 0.2504 -0.0238
101 1 Ar 2.96445 2.04302 2.53615 0 0 0 0.6766 -1.4181 -1.9886
102 1 Ar 3.27229 4.53176 0.86009 0 0 0 0.9560 -1.7290 -2.3370
103 1 Ar 3.28380 0.58485 0.77620 0 1 0 0.3446 -1.7701 0.2746
104 1 Ar 2.75520 3.75611 3.99613 0 0 0 -0.5114 1.2772 -0.3652
105 1 Ar 3.49221 3.49124 3.09370 0 0 0 1.8947 0.4848 -0.7956
106 1 Ar 1.21317 4.35818 2.90526 1 0 0 -0.3710 0.5317 -0.7258
107 1 Ar 4.37429 1.97121 4.05423 0 0 0 0.7805 -3.7647 0.1622
108 1 Ar 3.87746 4.21893 3.87777 0 0 0 -0.4545 -0.5685 1.6516
ITEM: TIMESTEP
800
ITEM: NUMBER OF ATOMS
108
ITEM: BOX BOUNDS pp pp pp
0.0000000000000000e+00 5.0387885741475218e+00
0.0000000000000000e+00 5.0387885741475218e+00
0.0000000000000000e+00 5.0387885741475218e+00
ITEM: ATOMS id type element x y z ix iy iz vx vy vz
1 1 Ar 0.49922 1.58315 4.60422 0 0 -1 -1.5455 -1.1797 -0.8162
2 1 Ar 0.43197 0.63958 1.31089 0 0 0 -0.4660 -1.4041 -0.0167
3 1 Ar 0.61551 4.51889 0.31790 0 -1 0 -0.3305 0.3246 0.5625
4 1 Ar 0.03144 1.84704 0.85138 0 0 0 -0.4915 -0.4734 0.2773
5 1 Ar 4.36863 0.33692 2.19241 -1 0 0 -1.6894 0.8080 2.4411
6 1 Ar 3.94058 1.14173 3.04320 -1 0 0 -0.4102 -1.0693 -1.5819
7 1 Ar 1.40045 0.55704 1.91480 0 0 0 -1.1973 -0.9624 -0.0078
8 1 Ar 4.92938 0.79498 3.03014 -1 0 0 -0.3823 -1.6748 -1.5543
9 1 Ar 0.07117 4.32650 4.23727 0 -1 0 -0.7570 -1.8351 -1.4059
10 1 Ar 1.98726 4.61280 4.42055 0 -1 0 -0.6074 -0.5721 -0.8973
11 1 Ar 1.55481 4.13736 0.17525 0 -1 1 0.4401 -1.2437 0.5350
12 1 Ar 0.57471 0.11957 4.70600 0 0 0 0.6442 -1.4702 -0.8536
13 1 Ar 3.52540 2.33109 0.39066 -1 0 0 0.7805 1.7227 0.2398
14 1 Ar 0.60088 2.78189 0.51658 0 0 0 -0.2383 -2.7654 1.6986
15 1 Ar 4.24679 2.53142 1.32919 -1 0 0 0.1955 -0.7596 -1.2420
16 1 Ar 3.71806 4.77887 1.68893 -1 0 0 -1.5118 -1.2184 -0.8569
17 1 Ar 0.22957 2.20164 1.96934 0 0 0 -0.2492 1.3161 2.0251
18 1 Ar 1.86305 1.57442 1.06463 0 0 0 0.3978 0.4178 -0.0201
19 1 Ar 0.49689 1.11143 2.18625 0 0 0 1.9701 1.3912 1.5217
20 1 Ar 0.56604 2.96494 2.47359 0 0 0 -1.4925 0.1816 2.0779
21 1 Ar 1.21700 0.52142 2.94859 0 0 0 -1.0723 0.8665 0.5196
22 1 Ar 0.30636 3.00831 3.91939 0 0 0 0.6443 1.5791 -0.7278
23 1 Ar 0.94179 1.97382 1.12848 0 0 1 -0.3648 1.6051 -0.3914
24 1 Ar 4.73893 3.75360 3.15638 -1 0 0 1.3198 -0.8888 1.1718
25 1 Ar 4.60936 3.32013 4.45310 -1 0 -1 -1.4190 -0.9115 2.5008
26 1 Ar 1.59987 3.09883 0.09170 0 0 0 1.0071 0.7624 -0.7435
27 1 Ar 0.98783 3.72284 1.19084 0 0 0 -2.1536 -1.5931 -0.1894
28 1 Ar 4.83408 4.86463 1.05668 -1 0 0 0.5110 1.4962 0.0654
29 1 Ar 4.87790 3.43868 1.23510 -1 0 0 0.5720 -2.1313 -1.3204
30 1 Ar 0.16622 4.79379 2.07196 0 0 0 1.0757 -1.2770 0.4002
31 1 Ar 4.29270 4.06365 2.16102 -1 0 0 2.0081 0.8894 0.4220
32 1 Ar 3.85533 3.57484 1.23865 -1 0 0 -0.3867 -1.6988 3.3800
33 1 Ar 3.86307 2.32479 2.84368 -1 0 0 -1.2751 0.6516 0.9294
34 1 Ar 1.20508 2.86976 1.68738 0 0 0 1.3190 0.3580 -0.3328
35 1 Ar 0.90221 3.67523 4.53793 0 0 0 1.7003 -0.7068 0.1867
36 1 Ar 0.08096 3.64745 0.19415 0 0 1 0.2954 -0.3711 2.1786
37 1 Ar 2.24288 1.61101 4.24646 0 0 -1 -2.3716 2.4766 -0.8881
38 1 Ar 3.53830 1.30920 4.83031 0 0 -1 1.3113 -0.9147 0.7928
39 1 Ar 2.68288 4.75424 0.31116 0 -1 0 0.5186 -0.4540 1.8137
40 1 Ar 1.55025 4.76186 0.87728 0 -1 0 -1.3825 0.3754 0.0353
41 1 Ar 2.94122 3.73632 1.78038 0 -1 0 -2.4934 -0.3752 1.8850
42 1 Ar 3.27320 0.36700 2.68215 0 0 0 -0.2064 1.6323 -0.5159
43 1 Ar 3.22785 4.40724 2.53321 0 -1 0 0.4320 -0.1974 -0.0550
44 1 Ar 2.15732 0.05153 2.69349 0 0 0 1.1069 1.8837 -1.0968
45 1 Ar 2.46336 0.43040 3.49949 0 0 0 3.9155 2.8832 0.7936
46 1 Ar 1.94782 1.05911 2.53263 0 0 0 0.8369 0.3532 1.3549
47 1 Ar 2.57797 3.55319 0.05609 0 -1 1 0.9793 0.1424 0.6142
48 1 Ar 1.15854 4.80971 3.80958 0 -1 0 2.1472 -0.0702 -0.7203
49 1 Ar 1.99167 0.44391 0.08687 0 0 0 -1.1758 0.9653 -2.8331
50 1 Ar 3.56390 3.18125 4.67069 0 0 -1 -0.2208 -1.0104 0.3396
51 1 Ar 3.57275 2.92119 1.96590 0 0 0 1.6868 -0.8169 0.0478
52 1 Ar 2.72085 2.07194 1.33163 0 0 0 -0.1495 -0.0085 -1.5963
53 1 Ar 1.91652 0.63827 1.03404 0 0 0 0.3058 -0.8218 2.1774
54 1 Ar 3.14149 0.86146 1.77798 0 0 0 1.3572 0.6292 -0.1297
55 1 Ar 2.41815 4.99711 1.60512 0 -1 0 -1.0391 -0.8890 -0.4592
56 1 Ar 1.73196 4.46946 1.87365 0 0 0 -0.6044 -0.0695 1.4965
57 1 Ar 1.60333 0.72788 4.14195 0 0 0 -0.4745 -0.3666 -3.3731
58 1 Ar 1.64297 3.53289 2.57470 0 0 0 0.2982 -0.9915 -0.6410
59 1 Ar 1.11084 0.48943 0.38567 0 0 1 0.2341 -0.0595 -0.4300
60 1 Ar 0.90126 2.18785 3.87377 0 0 0 -2.5813 -0.7562 -1.6220
61 1 Ar 1.35767 1.39714 0.16580 0 0 0 1.2898 -1.7063 0.1323
62 1 Ar 2.24136 3.87169 0.97004 0 0 0 0.1758 2.3424 0.3852
63 1 Ar 3.03419 3.11994 0.91308 0 0 0 0.0532 -0.7047 -0.9540
64 1 Ar 1.92372 2.75690 1.01047 0 0 0 -0.3328 -1.9913 0.9860
65 1 Ar 1.56468 1.61178 3.40706 0 0 0 -0.3492 -0.5972 2.0270
66 1 Ar 2.63003 2.71551 2.26682 0 0 0 1.0065 0.2708 -0.9454
67 1 Ar 1.83562 4.37089 3.40146 0 0 0 -0.9979 0.2524 0.7510
68 1 Ar 0.48666 3.84183 2.04732 0 0 0 -1.7175 -1.1466 -0.0082
69 1 Ar 1.58709 2.63804 3.05921 0 0 0 0.9957 0.6028 0.2979
70 1 Ar 1.88995 3.49538 4.03084 0 0 0 -0.9500 -0.3621 -0.5972
71 1 Ar 2.20775 2.10859 0.08217 0 0 1 -0.2048 -0.4245 -1.7727
72 1 Ar 1.00240 3.58246 3.33901 0 0 0 -0.1664 0.8307 0.1361
73 1 Ar 2.95704 0.32087 4.48945 0 0 -1 -0.5173 -1.7354 1.1014
74 1 Ar 4.89494 1.07288 4.04034 0 0 -1 -1.5688 1.3250 0.6250
75 1 Ar 4.47535 1.69859 0.08978 0 0 0 -0.0213 0.0124 0.3910
76 1 Ar 2.89902 1.26045 3.12768 0 0 -1 -0.6378 0.6481 1.4904
77 1 Ar 4.03929 0.77254 1.10564 0 0 0 -0.6911 -0.6000 0.0237
78 1 Ar 3.73607 1.78540 1.47664 0 0 0 1.5102 -0.8931 -1.9205
79 1 Ar 4.26362 4.80054 3.07144 0 -1 0 -0.8656 -0.3992 -0.9405
80 1 Ar 3.27639 1.97731 4.05433 0 0 0 0.6714 1.9392 -1.5176
81 1 Ar 3.29334 4.97436 3.63353 0 -1 0 0.6993 -0.4978 -0.9758
82 1 Ar 0.00641 1.92708 2.91601 1 0 0 0.7373 -0.1660 -0.7911
83 1 Ar 0.21571 4.77379 3.31446 1 -1 0 -2.3464 1.3034 0.1642
84 1 Ar 3.74995 0.67815 4.03377 0 0 0 0.0035 1.8373 0.5108
85 1 Ar 2.57865 2.75195 4.25408 0 0 -1 -1.4134 0.3932 1.1998
86 1 Ar 4.25216 3.05810 0.41225 0 0 0 0.1838 -0.7237 -0.9372
87 1 Ar 4.64338 2.92626 2.21349 0 0 0 0.0427 -0.5113 1.5160
88 1 Ar 4.49456 0.10175 4.27469 0 1 -1 0.5517 0.5593 0.1469
89 1 Ar 2.79915 1.22829 0.51123 0 0 0 0.5816 1.5608 -1.0505
90 1 Ar 4.48272 1.54990 1.92353 0 0 0 -0.3289 0.7245 0.3615
91 1 Ar 0.99873 1.95778 2.64188 1 0 0 1.3468 0.3703 -1.7001
92 1 Ar 1.94070 2.01621 2.38706 0 0 0 -1.3185 1.7675 1.0830
93 1 Ar 2.69536 2.33382 3.14901 0 0 0 2.8330 -0.9228 -0.3192
94 1 Ar 3.97027 2.77735 3.78815 0 0 0 -0.5459 -0.1712 -0.9497
95 1 Ar 0.02030 2.45860 4.75345 1 0 0 1.0979 -1.3573 -1.4201
96 1 Ar 2.55766 3.46651 3.20839 0 0 0 2.2252 -0.0847 -1.4883
97 1 Ar 3.48752 4.45863 4.72620 0 0 -1 0.4548 1.1302 -2.1664
98 1 Ar 4.74758 0.76072 0.36244 0 1 0 1.3852 2.6900 -0.7658
99 1 Ar 4.37088 4.34639 0.08348 0 0 0 -0.9135 1.5092 2.4547
100 1 Ar 3.75770 0.34493 0.21350 0 1 0 0.4112 2.4006 1.4967
101 1 Ar 3.19812 1.88529 2.25654 0 0 0 -0.0610 -0.0234 0.3439
102 1 Ar 3.12571 4.24674 1.03294 0 0 0 -1.6080 0.7931 -1.6902
103 1 Ar 3.04003 0.26518 0.97543 0 1 0 0.4418 -0.3532 0.0441
104 1 Ar 2.85533 3.90153 4.03892 0 0 0 -0.7898 -0.7794 1.8949
105 1 Ar 3.83754 3.40097 2.90942 0 0 0 0.0355 -2.0548 -0.3890
106 1 Ar 1.02187 4.44555 2.65079 1 0 0 -1.4847 1.3530 -0.2808
107 1 Ar 4.30732 1.78471 3.74254 0 0 0 -0.0879 -1.0555 -0.8181
108 1 Ar 4.09651 4.19764 3.87121 0 0 0 1.9137 0.9420 -2.3307
ITEM: TIMESTEP
840
ITEM: NUMBER OF ATOMS
108
ITEM: BOX BOUNDS pp pp pp
0.0000000000000000e+00 5.0387885741475218e+00
0.0000000000000000e+00 5.0387885741475218e+00
0.0000000000000000e+00 5.0387885741475218e+00
ITEM: ATOMS id type element x y z ix iy iz vx vy vz
1 1 Ar 0.70817 1.27809 4.67861 0 0 -1 1.7700 -0.8021 -0.9287
2 1 Ar 0.41813 0.73006 1.39391 0 0 0 -0.4428 0.9953 -0.3090
3 1 Ar 0.47522 4.53569 0.64149 0 -1 0 -1.6172 -0.1931 0.3801
4 1 Ar 5.01550 1.50969 1.07137 -1 0 0 0.8601 -1.8851 1.1970
5 1 Ar 4.06878 0.54064 2.22464 -1 0 0 -0.3352 1.2092 0.6578
6 1 Ar 3.94550 1.25139 2.87175 -1 0 0 0.2167 -0.3912 -0.1332
7 1 Ar 1.17368 0.20208 2.07172 0 0 0 0.3794 0.8054 1.5298
8 1 Ar 4.91371 0.74189 2.87755 -1 0 0 -1.5548 -0.1833 0.2114
9 1 Ar 0.19506 4.12872 4.14731 0 -1 0 1.0455 2.2897 -0.2703
10 1 Ar 2.00401 4.55397 4.16035 0 -1 0 1.0114 0.5024 -1.6636
11 1 Ar 1.49664 3.98571 0.17720 0 -1 1 -1.2845 -0.4365 1.4269
12 1 Ar 0.39020 0.28541 4.51545 0 0 0 -0.3734 1.3397 0.0812
13 1 Ar 3.43860 2.32225 0.27695 -1 0 0 -1.4750 0.3985 -0.4557
14 1 Ar 0.41640 2.59640 0.53708 0 0 0 -0.7304 -1.2858 -0.0848
15 1 Ar 4.29607 2.23778 1.26945 -1 0 0 1.1357 -3.2183 -2.1384
16 1 Ar 3.69456 4.76454 1.73527 -1 0 0 0.9069 -0.5217 0.1378
17 1 Ar 0.20407 2.38173 1.77939 0 0 0 -0.6458 -0.6552 0.9294
18 1 Ar 2.00987 1.61871 1.10981 0 0 0 0.3965 0.9126 1.2451
19 1 Ar 0.63075 1.19260 2.20675 0 0 0 0.8017 2.0608 -0.9640
20 1 Ar 0.62159 2.91442 3.08238 0 0 0 0.2967 1.0427 0.3442
21 1 Ar 0.85423 0.62534 3.07039 0 0 0 -1.8170 0.1277 0.6254
22 1 Ar 0.32677 3.12054 3.96007 0 0 0 -0.5085 1.8111 0.4084
23 1 Ar 1.09786 1.88915 1.45378 0 0 1 0.6362 -1.6972 1.6856
24 1 Ar 4.98749 3.81217 3.03455 -1 0 0 0.8191 1.9362 -0.4810
25 1 Ar 4.46127 3.50676 4.51293 -1 0 -1 -0.6443 1.0874 1.4197
26 1 Ar 1.65108 2.96750 4.99244 0 0 -1 -1.7181 0.2701 -0.2864
27 1 Ar 0.98851 3.57576 0.97165 0 0 0 2.0703 -0.7878 -0.3066
28 1 Ar 4.78005 4.92583 1.19026 -1 0 0 0.0784 -1.7690 0.7325
29 1 Ar 4.95895 3.15936 1.30438 -1 0 0 -1.5639 1.0738 -1.0017
30 1 Ar 0.13298 5.02286 2.05083 0 0 0 -1.1733 2.2709 0.7044
31 1 Ar 4.51248 4.10582 2.22049 -1 0 0 0.9009 -0.0956 -0.3330
32 1 Ar 3.97603 3.65372 1.56814 -1 0 0 -0.2306 -0.4085 0.0292
33 1 Ar 3.88033 2.23175 2.84731 -1 0 0 0.4560 1.6125 0.2076
34 1 Ar 1.15805 2.88040 1.86691 0 0 0 -0.8726 1.8285 -1.8670
35 1 Ar 0.95924 3.58186 4.58720 0 0 0 0.3807 -1.4204 -0.1848
36 1 Ar 0.15188 3.60113 0.09630 0 0 1 -0.4063 0.3967 -1.4659
37 1 Ar 2.18448 1.89116 4.07194 0 0 -1 0.2067 -0.0375 -1.1247
38 1 Ar 3.47536 1.40604 4.81227 0 0 -1 -0.5512 -0.7623 -0.9678
39 1 Ar 2.31671 4.70326 0.27017 0 -1 0 -0.1072 1.9365 1.3258
40 1 Ar 1.31839 4.83027 1.17955 0 -1 0 -0.4988 1.1700 -0.4827
41 1 Ar 2.41049 3.97537 2.09721 0 -1 0 -2.4548 1.0730 0.7530
42 1 Ar 3.13944 0.41057 2.74952 0 0 0 0.1370 -0.0805 1.3379
43 1 Ar 3.25405 4.35346 2.58028 0 -1 0 0.6965 2.2237 -1.4637
44 1 Ar 2.12568 0.02661 2.55195 0 0 0 -2.1349 -1.0762 -0.0516
45 1 Ar 2.67516 0.65257 3.77428 0 0 0 -0.0380 0.2091 0.0212
46 1 Ar 2.22884 1.15749 2.74156 0 0 0 1.3567 -0.7664 0.6287
47 1 Ar 2.56432 3.67002 0.20992 0 -1 1 -2.0411 0.1882 0.0446
48 1 Ar 1.13563 4.75931 3.84964 0 -1 0 -0.3023 0.4286 2.8191
49 1 Ar 1.93552 0.59287 4.69026 0 0 -1 0.3974 -0.7178 0.1815
50 1 Ar 3.37913 3.05202 4.69615 0 0 -1 0.8313 0.9822 -0.2181
51 1 Ar 3.64282 2.48859 1.90060 0 0 0 -1.4367 -0.0287 -0.1581
52 1 Ar 2.92457 2.12530 1.27192 0 0 0 0.9555 -1.0174 0.6594
53 1 Ar 2.11272 0.53560 1.14901 0 0 0 1.1290 -2.2303 0.1530
54 1 Ar 3.25575 0.93214 1.73335 0 0 0 -0.0348 -0.5333 -0.7608
55 1 Ar 2.72782 4.78188 1.52820 0 -1 0 2.2300 1.9209 -2.6884
56 1 Ar 1.37847 4.23437 2.03875 0 0 0 -1.1329 -2.3152 1.0042
57 1 Ar 1.66054 0.65296 3.65595 0 0 0 0.6657 -0.0843 -2.9239
58 1 Ar 1.86400 3.29257 2.55803 0 0 0 0.4984 -2.9099 2.0414
59 1 Ar 0.88432 0.43405 0.39645 0 0 1 1.7884 -0.2393 -0.5713
60 1 Ar 0.52906 2.07467 3.71204 0 0 0 -0.0464 -0.9529 1.3788
61 1 Ar 1.57719 1.47242 0.07980 0 0 0 0.7198 1.6452 0.4922
62 1 Ar 2.00492 3.94051 1.19489 0 0 0 -1.0221 -1.5742 -0.5195
63 1 Ar 2.96215 3.14757 1.00950 0 0 0 0.4010 1.2582 1.4166
64 1 Ar 1.91437 2.78740 1.01781 0 0 0 -0.8846 2.2037 0.9755
65 1 Ar 1.28680 1.56313 3.21490 0 0 0 -1.0611 -0.8526 -0.2000
66 1 Ar 2.72669 2.91045 1.94398 0 0 0 -0.1420 2.1114 -1.3685
67 1 Ar 2.14543 4.20737 3.06693 0 0 0 -1.7336 3.1432 -0.0315
68 1 Ar 0.46091 3.56832 2.21164 0 0 0 3.2831 -0.7894 1.9564
69 1 Ar 1.70263 2.67183 3.38620 0 0 0 0.2245 -1.9834 0.4750
70 1 Ar 1.82407 3.59921 4.05082 0 0 0 0.3574 1.6084 1.1562
71 1 Ar 2.35122 2.18603 0.23143 0 0 1 1.8885 1.4400 0.5429
72 1 Ar 1.07151 3.87588 3.36492 0 0 0 0.4574 -0.7421 -0.2632
73 1 Ar 3.10515 0.29111 4.79326 0 0 -1 1.5602 0.6071 2.4276
74 1 Ar 4.77037 0.94671 4.05443 0 0 -1 0.6282 -0.9032 -0.1052
75 1 Ar 4.44308 2.06266 5.03188 0 0 -1 -1.0373 1.1929 0.7887
76 1 Ar 3.04073 1.51850 3.30982 0 0 -1 -0.1114 2.5428 0.4925
77 1 Ar 4.36127 0.78476 1.09339 0 0 0 2.9348 1.0201 -2.2396
78 1 Ar 3.75354 1.36774 0.75797 0 0 0 0.6163 -1.6571 -3.3034
79 1 Ar 4.14526 4.85604 2.84412 0 -1 0 0.2794 0.8730 1.6569
80 1 Ar 3.27772 2.10559 4.17157 0 0 0 -0.7133 1.0362 1.0398
81 1 Ar 3.22725 4.68882 3.56160 0 -1 0 -2.1459 -0.2904 0.6882
82 1 Ar 4.91671 1.81599 2.92447 0 0 0 -0.9910 0.1514 -0.3411
83 1 Ar 5.00100 4.79747 3.50912 0 -1 0 -1.2216 -0.0402 1.1072
84 1 Ar 3.64561 0.98675 3.81816 0 0 0 -0.2998 -0.9769 0.3130
85 1 Ar 2.47833 2.83102 4.33496 0 0 -1 -0.1618 0.3975 -1.1525
86 1 Ar 4.32903 3.08729 0.45156 0 0 0 -0.4416 0.2484 0.4611
87 1 Ar 4.64986 2.97242 2.50683 0 0 0 0.7141 -0.9977 0.7541
88 1 Ar 4.46839 4.88246 4.39351 0 0 -1 1.2465 -1.6515 -0.4135
89 1 Ar 2.72306 1.28721 0.49613 0 0 0 0.1956 -2.8492 0.0593
90 1 Ar 4.61852 1.38176 2.09296 0 0 0 -0.0651 -1.1379 -3.1377
91 1 Ar 1.06019 2.24735 2.55858 1 0 0 -0.1636 -0.1166 -1.0171
92 1 Ar 1.99236 2.02874 2.21898 0 0 0 -1.0206 -0.7592 -1.4795
93 1 Ar 2.80678 2.56435 3.14852 0 0 0 -0.6186 -1.0873 0.6309
94 1 Ar 3.98286 2.95873 3.70910 0 0 0 -0.4805 -0.0531 -1.4447
95 1 Ar 0.17214 2.40172 4.61928 1 0 0 1.4547 -1.5846 1.4386
96 1 Ar 2.82040 3.51596 2.84189 0 0 0 1.5460 -2.3579 -0.5418
97 1 Ar 3.63869 4.44715 4.53708 0 0 -1 -1.7819 -2.6877 1.2584
98 1 Ar 4.96991 0.88090 0.30315 0 1 0 -2.1830 -0.3973 -0.1671
99 1 Ar 4.19500 4.40124 0.34738 0 0 0 -0.7576 -1.7756 -0.1629
100 1 Ar 4.03941 0.37897 0.07502 0 1 0 2.0075 0.8389 -0.4282
101 1 Ar 2.96613 1.83884 2.31149 0 0 0 -1.8452 0.2286 0.8124
102 1 Ar 3.36004 4.05740 0.71231 0 0 0 1.3977 -0.7378 -1.2470
103 1 Ar 3.10786 0.43331 0.83965 0 1 0 -0.1059 -0.1428 -1.8128
104 1 Ar 2.79231 3.84272 4.09600 0 0 0 0.9456 0.0420 -1.4311
105 1 Ar 3.84693 3.53305 2.86117 0 0 0 2.2741 1.5977 -0.4284
106 1 Ar 0.75630 4.69218 2.67518 1 0 0 -2.4347 -0.7195 -0.9403
107 1 Ar 4.34160 1.84384 3.83260 0 0 0 1.3431 1.1341 3.0660
108 1 Ar 4.22350 4.04644 3.67481 0 0 0 0.0663 -1.0566 -1.8498
ITEM: TIMESTEP
880
ITEM: NUMBER OF ATOMS
108
ITEM: BOX BOUNDS pp pp pp
0.0000000000000000e+00 5.0387885741475218e+00
0.0000000000000000e+00 5.0387885741475218e+00
0.0000000000000000e+00 5.0387885741475218e+00
ITEM: ATOMS id type element x y z ix iy iz vx vy vz
1 1 Ar 1.05176 1.26635 4.36486 0 0 -1 2.7766 -0.1001 -1.9828
2 1 Ar 0.56843 0.39267 1.12688 0 0 0 -0.8123 -0.9138 -2.0901
3 1 Ar 0.56326 4.56397 0.42933 0 -1 0 0.8573 1.6831 -2.1409
4 1 Ar 0.45883 1.43677 0.80510 0 0 0 1.5877 -1.9663 0.1320
5 1 Ar 3.85279 0.54799 2.10149 -1 0 0 -1.8484 0.3891 0.1551
6 1 Ar 3.81169 1.46998 2.89196 -1 0 0 -0.7369 0.9816 -2.2470
7 1 Ar 1.12946 0.67546 2.09470 0 0 0 0.6595 1.2134 -0.3092
8 1 Ar 4.57260 0.82195 3.02739 -1 0 0 -0.0313 -0.4528 -0.3796
9 1 Ar 0.32068 4.21695 4.35033 0 -1 0 -0.4190 -0.3127 0.8526
10 1 Ar 2.29164 4.79655 4.24007 0 -1 0 -0.5594 -2.1951 0.6544
11 1 Ar 1.45545 4.47847 0.12321 0 -1 1 1.3948 2.7301 -2.8881
12 1 Ar 0.30710 0.15806 4.66734 0 0 0 -0.7697 -0.9967 1.3704
13 1 Ar 3.42990 2.36512 0.38449 -1 0 0 1.8763 -1.1310 -0.9475
14 1 Ar 0.32792 2.73459 0.87557 0 0 0 -0.7055 1.1807 1.9295
15 1 Ar 4.15544 2.08834 1.14624 -1 0 0 -0.8129 1.1332 1.7474
16 1 Ar 3.83145 4.56283 1.63726 -1 0 0 1.4035 -1.3768 -0.3054
17 1 Ar 0.14135 2.18859 1.87332 0 0 0 0.7615 0.7227 -0.8634
18 1 Ar 2.14997 1.60629 1.08723 0 0 0 1.4741 -0.1395 -0.3006
19 1 Ar 0.35921 1.29475 2.52200 0 0 0 -2.4700 -0.1018 0.7855
20 1 Ar 0.58586 2.78406 3.45609 0 0 0 -1.4721 0.1250 3.6906
21 1 Ar 0.72155 0.61253 3.12983 0 0 0 0.9985 0.2441 0.6088
22 1 Ar 4.80461 2.99655 4.05027 -1 0 0 -0.2010 -2.9985 1.4846
23 1 Ar 1.24751 1.87121 1.48437 0 0 1 0.8668 0.5230 0.1778
24 1 Ar 4.97554 3.80283 3.27356 -1 0 0 -0.4561 0.4085 -0.1963
25 1 Ar 4.31371 3.71309 4.58977 -1 0 -1 -1.7061 -0.4001 -0.2943
26 1 Ar 1.40800 2.78835 0.09348 0 0 0 -2.4741 -0.7656 0.9542
27 1 Ar 0.87703 3.55348 0.73288 0 0 0 1.4071 1.3030 -0.2152
28 1 Ar 4.89725 4.46893 1.16946 -1 0 0 2.3647 0.2311 1.3614
29 1 Ar 4.89280 3.53635 1.28112 -1 0 0 0.1701 1.1427 0.6790
30 1 Ar 5.01207 0.34409 2.14227 -1 1 0 0.9016 0.8766 -0.4261
31 1 Ar 4.92867 4.32672 2.11585 -1 0 0 2.3082 1.5629 1.3797
32 1 Ar 3.75710 3.57264 1.44951 -1 0 0 -0.5844 1.3250 -1.1240
33 1 Ar 3.79491 2.44321 2.87060 -1 0 0 -1.0241 2.2608 0.3842
34 1 Ar 1.15553 2.84910 1.75819 0 0 0 0.1485 0.6748 -0.7217
35 1 Ar 0.95050 3.35361 4.45008 0 0 0 -0.1936 -1.6447 -0.7812
36 1 Ar 0.07687 3.38696 0.09018 0 0 1 -1.8666 -3.5539 -2.0064
37 1 Ar 2.22285 1.53588 4.05098 0 0 -1 -1.5549 -1.4247 1.8151
38 1 Ar 3.22298 1.34540 4.50526 0 0 -1 -1.3184 0.1016 0.8668
39 1 Ar 2.38646 4.89759 0.45215 0 -1 0 1.1615 -0.0994 0.3668
40 1 Ar 1.34807 4.72056 1.16394 0 -1 0 1.4812 -1.6943 0.7193
41 1 Ar 2.37933 4.15003 2.26839 0 -1 0 -1.3908 -1.6178 2.0047
42 1 Ar 3.25626 0.60481 2.93540 0 0 0 0.7724 2.1854 -0.0887
43 1 Ar 3.23117 4.61775 2.48523 0 -1 0 0.7229 1.3265 0.6690
44 1 Ar 2.14567 0.14289 2.34681 0 0 0 1.1225 0.5766 -1.4239
45 1 Ar 2.63497 0.69103 3.85134 0 0 0 -1.8167 -1.2745 -0.7301
46 1 Ar 2.36976 1.09971 2.76411 0 0 0 -0.3828 1.3340 -0.2275
47 1 Ar 2.28681 3.56794 0.02764 0 -1 1 -0.5281 -0.7562 -0.8391
48 1 Ar 1.32183 4.93048 4.02884 0 -1 0 1.6330 -0.4427 1.1929
49 1 Ar 1.98399 0.63733 4.72281 0 0 -1 0.0892 2.3648 -1.0161
50 1 Ar 3.24777 3.16511 4.75947 0 0 -1 -2.2096 0.4918 1.9782
51 1 Ar 3.62065 2.66992 1.88920 0 0 0 -0.3119 -0.0198 -0.2653
52 1 Ar 3.17982 1.85962 1.24007 0 0 0 1.4468 -0.4926 0.4559
53 1 Ar 2.04957 0.63280 1.26999 0 0 0 -0.8791 1.4115 1.4851
54 1 Ar 3.04445 0.93661 1.54747 0 0 0 -1.9454 -0.6384 -0.7695
55 1 Ar 2.83680 4.52871 1.44186 0 -1 0 -0.7452 -0.1172 0.2092
56 1 Ar 1.34328 4.12174 1.95912 0 0 0 -0.4208 0.1704 -0.8193
57 1 Ar 1.71597 0.34207 3.29224 0 0 0 0.9117 -1.0778 -2.3589
58 1 Ar 1.69667 2.91767 2.75787 0 0 0 -2.2295 -0.1572 0.9910
59 1 Ar 1.22443 0.53739 0.24833 0 0 1 -0.2049 0.6765 0.4370
60 1 Ar 0.46484 1.82837 3.67798 0 0 0 -1.0988 -2.1064 -0.3963
61 1 Ar 1.65882 1.74536 0.16340 0 0 0 -1.4783 0.6517 -0.9533
62 1 Ar 2.11273 4.03154 1.15593 0 0 0 0.0787 0.2771 -0.4938
63 1 Ar 2.96834 3.03163 0.95769 0 0 0 -0.7694 -0.4019 0.2544
64 1 Ar 1.99803 2.77309 1.10742 0 0 0 -0.5253 -1.0195 1.3849
65 1 Ar 1.33628 1.39019 3.16053 0 0 0 1.5882 -1.0605 -1.0492
66 1 Ar 2.39446 3.15922 1.95198 0 0 0 -1.0655 0.7777 -0.3194
67 1 Ar 1.93792 4.42980 3.29104 0 0 0 0.6255 1.5681 -0.5726
68 1 Ar 0.41015 3.54225 2.34949 0 0 0 0.1030 0.4425 -0.6019
69 1 Ar 1.42226 2.31469 3.68055 0 0 0 -1.7155 -1.0249 2.3218
70 1 Ar 1.93259 3.84646 4.12453 0 0 0 0.4808 1.7115 0.8389
71 1 Ar 2.49048 2.48221 0.22542 0 0 1 0.9660 0.4074 -1.9681
72 1 Ar 1.04640 3.72911 3.35750 0 0 0 -1.2953 -1.0313 0.2804
73 1 Ar 3.10791 0.19471 4.59405 0 0 -1 1.6663 -0.7035 0.2498
74 1 Ar 4.84357 0.95122 4.04077 0 0 -1 1.5273 1.2856 1.8989
75 1 Ar 4.39734 2.07684 0.11824 0 0 0 1.4986 -0.3488 1.5897
76 1 Ar 3.12069 1.49823 3.57963 0 0 -1 0.9251 1.4910 -0.2403
77 1 Ar 4.48858 0.44294 1.14654 0 0 0 1.8483 -1.5865 0.2799
78 1 Ar 3.72500 1.21807 0.53655 0 0 0 -0.5131 -0.8600 -0.4124
79 1 Ar 3.99094 4.92502 3.02480 0 -1 0 2.1740 -0.0718 -2.3471
80 1 Ar 3.33035 2.29801 4.20365 0 0 0 1.0602 -0.9846 -0.8784
81 1 Ar 3.15153 4.73457 3.52182 0 -1 0 -0.3211 -0.9384 0.4130
82 1 Ar 4.81608 1.90025 2.91563 0 0 0 -2.0055 1.2348 1.2234
83 1 Ar 5.01710 4.94390 3.64538 0 -1 0 -0.6308 -1.5271 2.1440
84 1 Ar 3.88259 0.43746 3.77128 0 0 0 0.6583 -2.6736 0.7850
85 1 Ar 2.30539 2.82247 4.28930 0 0 -1 -1.8409 -0.8586 1.5780
86 1 Ar 4.02359 3.15889 0.46276 0 0 0 -0.9815 1.5187 0.1935
87 1 Ar 4.79866 2.87004 2.67599 0 0 0 -0.7997 -0.3751 1.6513
88 1 Ar 4.40979 4.73973 4.40920 0 0 -1 -1.3494 0.5176 -1.0741
89 1 Ar 2.55882 1.08957 0.27704 0 0 0 0.8002 -0.5494 -0.7976
90 1 Ar 4.60476 1.36023 1.75759 0 0 0 -0.8919 -1.4783 -0.2031
91 1 Ar 0.94752 2.23837 2.62206 1 0 0 -0.7249 -1.6430 2.1862
92 1 Ar 1.96136 2.12259 2.16707 0 0 0 1.4282 1.1304 1.3266
93 1 Ar 2.51098 2.56584 3.30195 0 0 0 -0.6774 -0.4825 0.0772
94 1 Ar 3.85802 3.12630 3.80386 0 0 0 -1.9292 1.6023 0.8062
95 1 Ar 0.51039 2.20316 4.85008 1 0 0 1.5236 -0.2451 1.4762
96 1 Ar 3.22438 3.44326 2.77467 0 0 0 1.8311 -0.0232 -2.8518
97 1 Ar 3.27105 4.30495 4.66573 0 0 -1 -1.2831 0.9029 -1.6118
98 1 Ar 0.15275 1.28002 4.96881 1 1 -1 -0.2570 2.2060 -4.0586
99 1 Ar 4.54358 4.25999 0.30244 0 0 0 0.2863 0.9181 0.6956
100 1 Ar 4.16566 0.40521 5.01408 0 1 -1 0.9646 0.9122 -1.1783
101 1 Ar 2.97415 1.86860 2.36399 0 0 0 1.3548 0.5258 0.0358
102 1 Ar 3.35602 4.19056 0.72480 0 0 0 0.6729 0.8175 0.9158
103 1 Ar 3.60798 0.19662 0.87347 0 1 0 0.0354 -2.4216 1.4257
104 1 Ar 2.94451 3.57979 3.71927 0 0 0 -0.0849 -0.8489 0.1370
105 1 Ar 4.13708 3.68673 2.41355 0 0 0 1.9101 0.8010 -2.3957
106 1 Ar 0.75083 4.67697 2.69495 1 0 0 1.5474 0.9152 -1.0338
107 1 Ar 4.58464 2.13092 4.04838 0 0 0 1.2021 -0.2778 -3.1264
108 1 Ar 3.99725 4.16499 3.67816 0 0 0 -2.7350 0.4392 -0.3847
ITEM: TIMESTEP
920
ITEM: NUMBER OF ATOMS
108
ITEM: BOX BOUNDS pp pp pp
0.0000000000000000e+00 5.0387885741475218e+00
0.0000000000000000e+00 5.0387885741475218e+00
0.0000000000000000e+00 5.0387885741475218e+00
ITEM: ATOMS id type element x y z ix iy iz vx vy vz
1 1 Ar 1.18307 0.95519 4.12691 0 0 -1 -0.0798 -2.7739 0.2853
2 1 Ar 0.61419 0.34665 1.07561 0 0 0 0.1321 -0.0626 0.6934
3 1 Ar 0.67932 4.56605 0.21572 0 -1 0 -0.3070 1.0048 -1.7163
4 1 Ar 0.72629 1.42441 0.86519 0 0 0 0.2516 1.4259 -0.9016
5 1 Ar 3.69423 0.41802 1.94279 -1 0 0 -0.4461 -1.8027 -1.0863
6 1 Ar 3.75225 1.39797 2.34128 -1 0 0 -2.4757 0.0419 -0.7729
7 1 Ar 1.11055 0.93338 2.22471 0 0 0 -1.0034 1.6236 1.4557
8 1 Ar 4.46493 0.81842 2.76419 -1 0 0 -0.9609 1.1257 -2.5563
9 1 Ar 0.18690 3.95436 4.52737 0 -1 0 -1.3319 -1.4963 0.4711
10 1 Ar 2.61743 4.86242 4.51699 0 -1 0 1.7212 0.3899 1.0613
11 1 Ar 1.72540 4.67744 0.12576 0 -1 1 0.1561 -0.7951 0.5063
12 1 Ar 0.22753 0.27017 4.70179 0 0 0 2.3973 -2.4761 1.2108
13 1 Ar 3.66596 2.08713 0.17954 -1 0 0 0.8972 -0.5399 0.5461
14 1 Ar 0.50251 2.59699 1.07094 0 0 0 2.3675 -1.9889 0.8356
15 1 Ar 4.49700 2.37546 1.35888 -1 0 0 1.8988 1.7125 1.1753
16 1 Ar 4.35419 4.68797 1.66234 -1 0 0 2.4867 0.5158 -1.0667
17 1 Ar 0.27038 2.24183 2.00133 0 0 0 -0.1936 0.6859 0.6495
18 1 Ar 2.28923 1.65055 1.07787 0 0 0 0.0667 -2.0060 0.7883
19 1 Ar 0.23037 1.34884 2.43504 0 0 0 -0.4618 -0.7616 -0.7057
20 1 Ar 0.39977 2.68270 3.53188 0 0 0 -1.7443 0.6906 0.9043
21 1 Ar 0.66609 0.51274 3.31441 0 0 0 -0.4879 0.5880 -2.4863
22 1 Ar 4.64728 3.03641 4.01516 -1 0 0 0.6280 -0.3091 -1.1024
23 1 Ar 1.27593 1.84414 1.62333 0 0 1 0.3013 -0.0584 2.3147
24 1 Ar 4.81350 3.95356 3.33703 -1 0 0 -1.3606 -0.9021 0.3607
25 1 Ar 4.04290 3.58789 4.66951 -1 0 -1 1.3411 -0.8696 0.6608
26 1 Ar 1.36162 2.97129 0.42512 0 0 0 -1.3905 0.1168 -0.2980
27 1 Ar 1.15156 3.87231 0.82048 0 0 0 0.1563 1.2411 1.8590
28 1 Ar 0.38123 4.35947 1.45851 0 0 0 2.6904 -1.8493 0.7310
29 1 Ar 4.86134 3.47954 1.28651 -1 0 0 0.4162 -1.3880 -1.9750
30 1 Ar 0.19763 0.40249 1.97224 0 1 0 0.8383 -0.9948 -0.7999
31 1 Ar 0.45684 4.36261 2.46696 0 0 0 2.6135 -1.0574 1.7280
32 1 Ar 3.73217 3.67967 1.41788 -1 0 0 0.8092 2.6266 -0.8204
33 1 Ar 3.58078 2.62106 2.90629 -1 0 0 -0.8497 -0.7741 -1.2615
34 1 Ar 1.14943 3.00051 1.64437 0 0 0 0.4665 0.0354 -0.2801
35 1 Ar 0.92931 3.16015 4.44165 0 0 0 -0.7680 -0.1885 0.4595
36 1 Ar 4.92171 3.09646 0.22348 -1 0 1 0.3363 1.8987 -0.8880
37 1 Ar 2.40629 1.92364 4.21668 0 0 -1 2.6907 2.0041 0.1770
38 1 Ar 3.20879 1.39902 4.52908 0 0 -1 -0.2422 -1.1702 -0.1324
39 1 Ar 2.69398 4.90978 0.53443 0 -1 0 0.6560 -0.9157 -0.1382
40 1 Ar 1.48029 4.79914 1.00996 0 -1 0 0.4045 -0.2403 0.8400
41 1 Ar 2.26710 3.97451 2.46464 0 -1 0 0.3634 0.3000 0.6213
42 1 Ar 3.29181 0.66809 3.02019 0 0 0 0.4707 -0.2309 -0.9561
43 1 Ar 3.25180 4.78691 2.55749 0 -1 0 0.2642 0.2364 -1.1012
44 1 Ar 2.34054 0.27544 2.17075 0 0 0 0.6621 -0.0641 -0.0712
45 1 Ar 2.40594 0.59625 3.63130 0 0 0 -0.8385 1.4754 0.1239
46 1 Ar 2.49377 1.25720 2.56615 0 0 0 -0.2417 -1.5239 -1.3516
47 1 Ar 2.02678 3.58141 5.01687 0 -1 0 -0.1720 1.0636 -2.2937
48 1 Ar 1.08429 4.93727 3.92219 0 -1 0 -0.6247 -1.4853 0.4008
49 1 Ar 1.96012 0.51758 4.57623 0 0 -1 0.5732 -0.0089 -0.4499
50 1 Ar 3.10761 3.12770 5.01197 0 0 -1 -0.5636 -1.8141 0.9046
51 1 Ar 3.54022 2.73844 1.84044 0 0 0 1.0374 1.2198 -1.0463
52 1 Ar 3.37582 1.85281 1.30428 0 0 0 1.6924 -0.3191 -0.2092
53 1 Ar 1.67625 0.72993 1.22833 0 0 0 -1.4260 1.8679 -1.8762
54 1 Ar 2.81519 0.74747 1.50354 0 0 0 -0.0429 0.6059 0.7590
55 1 Ar 2.90276 4.60063 1.47959 0 -1 0 0.8561 -2.1768 -0.9477
56 1 Ar 1.34268 3.97179 1.94233 0 0 0 0.5458 0.3111 -0.6682
57 1 Ar 1.75788 0.56830 2.92493 0 0 0 0.2561 3.8560 1.6987
58 1 Ar 1.33848 3.00443 2.92599 0 0 0 -0.7221 0.0771 0.2558
59 1 Ar 1.25704 0.72163 0.15852 0 0 1 -0.2437 0.8609 -0.5307
60 1 Ar 0.34551 1.43763 3.48231 0 0 0 -2.7182 0.6680 -0.5971
61 1 Ar 1.45555 1.69308 5.02654 0 0 -1 -0.3492 -0.2901 -0.7083
62 1 Ar 2.10056 3.61283 1.15768 0 0 0 0.5182 -0.7329 1.9043
63 1 Ar 2.87677 2.99562 0.96256 0 0 0 0.2148 -0.9020 -0.5957
64 1 Ar 1.92687 2.58642 1.22053 0 0 0 0.7473 -0.5364 0.7254
65 1 Ar 1.48149 1.50266 3.18513 0 0 0 0.3937 1.4053 0.9846
66 1 Ar 2.37670 3.07287 1.88888 0 0 0 1.7960 -0.6676 1.3718
67 1 Ar 1.89707 4.50812 3.52456 0 0 0 -1.6024 1.4265 1.7627
68 1 Ar 0.42879 3.38122 2.44414 0 0 0 -0.6956 -2.3561 1.3656
69 1 Ar 1.09245 2.08473 4.08269 0 0 0 -2.4709 -1.6983 0.6820
70 1 Ar 1.60291 3.79193 4.09853 0 0 0 -2.2129 1.6334 -0.2995
71 1 Ar 2.49066 2.22021 0.22640 0 0 1 -0.1355 -1.6003 0.2262
72 1 Ar 0.83205 3.87038 3.41902 0 0 0 -1.5460 2.3216 0.5257
73 1 Ar 3.36852 0.38762 4.88447 0 0 -1 1.2984 0.2705 2.4906
74 1 Ar 4.79095 0.67145 3.83716 0 0 -1 -0.9255 0.1139 -0.8021
75 1 Ar 4.81590 2.02890 0.45232 0 0 0 1.5768 -1.5085 1.7220
76 1 Ar 3.13346 1.72483 3.31407 0 0 -1 1.1764 0.1647 -0.2585
77 1 Ar 4.45980 0.40762 1.02804 0 0 0 0.0134 0.2770 -2.4889
78 1 Ar 3.68988 1.13731 0.64667 0 0 0 0.4648 -0.1040 1.3389
79 1 Ar 4.23099 4.85237 2.68332 0 -1 0 -1.1517 -0.9016 0.8609
80 1 Ar 3.49459 2.31146 4.25392 0 0 0 0.2702 1.5753 -0.6569
81 1 Ar 2.97797 4.60423 3.46662 0 -1 0 -0.4515 -0.6433 0.4021
82 1 Ar 4.65711 2.08132 2.86085 0 0 0 0.5101 0.0818 -0.5099
83 1 Ar 0.09592 4.79328 3.59542 1 -1 0 1.1972 0.0998 0.1561
84 1 Ar 3.82249 0.39140 3.78672 0 0 0 -0.9863 -0.2490 -0.1285
85 1 Ar 1.93717 2.82857 4.23131 0 0 -1 -0.6540 0.7625 -0.0231
86 1 Ar 4.07842 3.27781 0.62455 0 0 0 -0.5448 -1.4598 3.2901
87 1 Ar 4.67688 3.04602 2.94090 0 0 0 -1.1201 -0.7515 1.9652
88 1 Ar 4.19470 4.69400 4.51889 0 0 -1 -0.5521 1.6762 0.1442
89 1 Ar 2.61268 0.83776 0.54182 0 0 0 -1.1391 -1.4933 -1.0581
90 1 Ar 4.55087 1.23468 1.61438 0 0 0 2.0433 0.8988 -2.5174
91 1 Ar 0.80441 2.16545 2.76394 1 0 0 1.8017 0.6991 -1.8097
92 1 Ar 1.94433 2.26840 2.37637 0 0 0 -2.6755 -0.0288 0.8247
93 1 Ar 2.43191 2.47871 3.28418 0 0 0 -1.0576 0.8796 -0.0104
94 1 Ar 3.57585 3.23901 3.82640 0 0 0 -3.4930 1.1784 -0.5613
95 1 Ar 0.65466 2.40309 4.90610 1 0 0 -0.3774 -0.4482 1.0330
96 1 Ar 3.26745 3.74875 2.30032 0 0 0 -1.2349 3.1852 0.1271
97 1 Ar 3.15578 4.05136 4.33511 0 0 -1 -0.2456 -0.9666 -2.3165
98 1 Ar 0.26947 1.26198 4.73163 1 1 -1 1.3668 -0.6303 -1.0823
99 1 Ar 4.54401 4.45739 0.52393 0 0 0 0.2547 0.6720 2.1711
100 1 Ar 4.34285 0.81103 4.93611 0 1 -1 0.0196 2.3142 -0.1338
101 1 Ar 3.02790 2.06023 2.34006 0 0 0 -0.9926 1.2395 0.1201
102 1 Ar 3.38736 4.14869 0.29277 0 0 0 -0.3716 0.2549 -2.0122
103 1 Ar 3.53580 0.20564 0.95048 0 1 0 0.7201 0.6192 -0.6926
104 1 Ar 2.53362 3.56104 3.67889 0 0 0 -2.0030 -0.6284 -1.5888
105 1 Ar 4.43519 3.85061 2.36093 0 0 0 -0.2819 1.8531 1.4337
106 1 Ar 1.25447 4.81772 2.60689 1 0 0 2.5730 -1.3047 -0.8642
107 1 Ar 4.16970 1.47475 4.22483 0 0 0 -2.5171 -3.0553 2.4443
108 1 Ar 3.83913 4.13560 3.38906 0 0 0 1.0837 0.1291 -2.3442
ITEM: TIMESTEP
960
ITEM: NUMBER OF ATOMS
108
ITEM: BOX BOUNDS pp pp pp
0.0000000000000000e+00 5.0387885741475218e+00
0.0000000000000000e+00 5.0387885741475218e+00
0.0000000000000000e+00 5.0387885741475218e+00
ITEM: ATOMS id type element x y z ix iy iz vx vy vz
1 1 Ar 1.01337 0.74160 3.91376 0 0 -1 -1.4458 0.2364 -1.2229
2 1 Ar 0.79083 0.22483 1.00359 0 0 0 2.5708 -2.0814 0.7886
3 1 Ar 0.73744 4.30830 0.24640 0 -1 0 -0.9561 -0.8929 -0.2686
4 1 Ar 0.69970 1.43575 0.59343 0 0 0 -1.5432 -0.1461 -0.8181
5 1 Ar 3.99048 0.33646 1.81304 -1 0 0 1.7580 -0.1839 -0.4738
6 1 Ar 3.49685 1.44920 2.18792 -1 0 0 0.7522 0.5569 0.1253
7 1 Ar 1.33139 0.95869 2.11855 0 0 0 1.9762 -1.3219 -0.9522
8 1 Ar 4.27475 1.03204 2.54526 -1 0 0 1.2165 1.7302 0.7568
9 1 Ar 5.02692 4.14583 4.39179 -1 -1 0 0.1367 2.6291 0.5502
10 1 Ar 2.87719 4.97779 4.53695 0 -1 0 -0.1410 0.8353 0.2194
11 1 Ar 1.76163 4.67059 4.89293 0 -1 0 1.4388 0.5669 0.0244
12 1 Ar 0.10500 0.28646 4.53513 0 0 0 -2.0396 -0.8323 -0.3929
13 1 Ar 3.77447 2.00645 0.19950 -1 0 0 -2.0618 -1.6526 -2.0116
14 1 Ar 0.69326 2.55694 1.04615 0 0 0 -0.4904 2.9736 -1.7082
15 1 Ar 4.48360 2.45458 1.35675 -1 0 0 -0.4635 -0.8297 -1.2375
16 1 Ar 4.69665 4.75118 1.72236 -1 0 0 0.2630 0.0281 0.8475
17 1 Ar 0.22986 2.25775 1.90568 0 0 0 0.2102 -0.9938 0.2402
18 1 Ar 2.36608 1.53624 1.27545 0 0 0 0.8825 -0.3191 0.9649
19 1 Ar 0.26111 1.31351 2.33831 0 0 0 2.1551 -0.3997 2.0817
20 1 Ar 0.53117 2.72467 3.54032 0 0 0 0.1528 0.8587 0.7197
21 1 Ar 0.55514 0.62092 3.02816 0 0 0 0.0072 0.7733 3.8948
22 1 Ar 4.54365 2.92366 4.14147 -1 0 0 2.0381 -0.2687 0.6454
23 1 Ar 1.20002 1.90953 1.62854 0 0 1 0.6472 -0.1456 -0.4441
24 1 Ar 4.68897 3.80483 3.46631 -1 0 0 -1.4212 0.6487 -0.6319
25 1 Ar 4.14880 3.54513 4.96874 -1 0 -1 1.1943 -0.4773 1.0223
26 1 Ar 1.29071 2.85737 0.23300 0 0 0 0.9052 -1.4868 -2.4936
27 1 Ar 1.29832 3.64896 0.97834 0 0 0 0.3992 -1.5072 1.4945
28 1 Ar 0.56680 4.27134 1.53064 0 0 0 2.1579 0.0181 -1.2691
29 1 Ar 0.12868 3.46821 1.15249 0 0 0 1.6221 0.5871 0.7298
30 1 Ar 0.32619 0.25045 2.13048 0 1 0 2.3372 0.5564 -0.4351
31 1 Ar 0.37585 4.29501 2.59419 0 0 0 -1.2692 0.1498 1.0493
32 1 Ar 3.96987 4.14696 1.40042 -1 0 0 -0.2745 -1.8744 -0.4849
33 1 Ar 3.35825 2.40559 2.59189 -1 0 0 -1.5698 -2.4138 -2.9154
34 1 Ar 1.24747 2.99519 1.90097 0 0 0 -0.4526 0.0343 0.8597
35 1 Ar 0.67257 3.09876 4.41226 0 0 0 -0.4417 -0.1092 -0.8477
36 1 Ar 0.10783 3.11305 0.18749 0 0 1 -0.0003 -0.6540 0.7603
37 1 Ar 2.66191 2.20869 4.18610 0 0 -1 0.4745 0.3096 0.4396
38 1 Ar 2.82946 1.12159 4.65009 0 0 -1 -1.1832 0.5081 0.7103
39 1 Ar 2.46164 4.56398 0.59282 0 -1 0 -1.5893 -1.3712 0.6942
40 1 Ar 1.64772 4.95835 1.49888 0 -1 0 -0.9833 0.4580 0.5021
41 1 Ar 2.34841 4.13012 2.57328 0 -1 0 2.2134 1.9778 -1.1199
42 1 Ar 3.28780 0.71982 2.87548 0 0 0 0.0966 -0.3240 -0.0039
43 1 Ar 3.29945 4.75262 2.47634 0 -1 0 1.9391 0.1507 -0.5930
44 1 Ar 2.39200 0.24271 1.93048 0 0 0 2.1905 0.8325 -2.0105
45 1 Ar 2.75703 0.88660 3.67000 0 0 0 0.2297 1.3408 -1.5426
46 1 Ar 2.35137 1.11989 2.35843 0 0 0 -1.6979 0.1240 0.2224
47 1 Ar 2.37503 3.63320 4.87571 0 -1 0 3.4743 -0.7371 1.0011
48 1 Ar 0.96197 4.80647 4.39393 0 -1 0 -1.8062 -0.0491 0.7980
49 1 Ar 1.89764 0.54270 4.47198 0 0 -1 -1.3243 0.2927 -2.0559
50 1 Ar 3.06356 2.88311 4.84589 0 0 -1 -0.0318 -0.6782 -0.7719
51 1 Ar 3.71442 3.12554 1.79766 0 0 0 1.2807 -0.4313 -0.9521
52 1 Ar 3.56601 2.13034 1.33945 0 0 0 1.0663 1.2692 -0.4094
53 1 Ar 1.55542 0.90534 1.15865 0 0 0 1.4948 -0.7436 0.9118
54 1 Ar 3.12494 0.77386 1.46384 0 0 0 1.1744 -1.5424 -1.3991
55 1 Ar 2.77629 4.36410 1.61121 0 -1 0 -0.2474 1.0733 2.5387
56 1 Ar 1.49352 4.02363 1.97761 0 0 0 0.0168 -0.8430 0.5997
57 1 Ar 1.69793 0.77699 3.20359 0 0 0 0.4183 2.4634 0.1446
58 1 Ar 1.32505 3.29879 3.07855 0 0 0 -1.7796 0.5089 -0.3970
59 1 Ar 1.04585 0.53752 5.01278 0 0 0 0.0860 -2.0330 -2.3216
60 1 Ar 0.00577 1.65490 3.51525 0 0 0 -1.8130 0.6664 -0.0907
61 1 Ar 1.55780 1.77441 4.91074 0 0 -1 0.5591 0.2244 -0.5536
62 1 Ar 2.23397 3.56845 1.29564 0 0 0 0.9654 -2.6804 0.0855
63 1 Ar 2.86090 2.75455 1.08433 0 0 0 -1.9097 -0.2477 0.7013
64 1 Ar 1.89367 2.54278 1.14468 0 0 0 -2.0691 1.4326 -0.3972
65 1 Ar 1.78505 1.94377 3.60158 0 0 0 1.6711 0.6181 2.2608
66 1 Ar 2.57785 3.10603 2.44583 0 0 0 -1.8072 -0.6287 1.8736
67 1 Ar 1.84944 4.95664 3.67380 0 0 0 -0.5990 0.1466 3.3111
68 1 Ar 0.36251 3.14283 2.65709 0 0 0 -0.4547 1.3561 0.1250
69 1 Ar 0.88385 1.96645 4.09309 0 0 0 1.1471 1.1872 0.0741
70 1 Ar 1.58464 3.85994 4.27876 0 0 0 0.6840 -1.0737 1.5786
71 1 Ar 2.52901 1.93239 0.27712 0 0 1 0.9170 -1.1700 0.2452
72 1 Ar 0.75342 4.00450 3.56790 0 0 0 0.2430 -0.2577 0.5095
73 1 Ar 3.62819 0.46294 0.00296 0 0 0 0.8988 0.7413 0.3593
74 1 Ar 4.62413 0.75392 3.78193 0 0 -1 -1.2268 0.5593 -0.6900
75 1 Ar 4.66690 1.77574 0.39200 0 0 0 -0.4005 -0.2968 -1.8273
76 1 Ar 3.30856 1.66797 3.33150 0 0 -1 -0.6400 0.5797 -1.3189
77 1 Ar 4.73447 0.39187 0.99437 0 0 0 -1.3822 -0.2292 1.0660
78 1 Ar 3.84891 1.09009 0.82916 0 0 0 1.4112 -0.4013 1.2249
79 1 Ar 4.36804 4.97417 2.88388 0 -1 0 0.4309 -0.1871 0.5708
80 1 Ar 3.74469 2.41616 4.15507 0 0 0 0.3908 -0.8024 -0.4363
81 1 Ar 2.90602 4.72966 3.43040 0 -1 0 -0.8763 0.6278 -0.1644
82 1 Ar 4.32766 1.98698 2.61822 0 0 0 -2.8893 0.6672 -1.8345
83 1 Ar 5.02217 4.85195 3.58912 0 -1 0 -0.2825 -0.6676 -0.2236
84 1 Ar 3.52813 0.31184 3.88619 0 0 0 0.7037 0.3176 0.6919
85 1 Ar 1.70486 2.85483 4.21433 0 0 -1 -1.3459 -0.7942 -0.3106
86 1 Ar 3.81771 2.96028 0.62847 0 0 0 -0.6603 1.3206 -0.9792
87 1 Ar 4.39270 3.00358 3.00135 0 0 0 -0.9144 -0.7287 -0.8961
88 1 Ar 4.28885 4.79514 4.62722 0 0 -1 1.4604 -0.9107 0.3825
89 1 Ar 2.43586 0.78803 0.57281 0 0 0 -0.6299 -0.5674 3.4942
90 1 Ar 4.79041 1.32592 1.46681 0 0 0 -1.1087 -0.6133 -0.8900
91 1 Ar 0.76154 1.97976 2.84082 1 0 0 -0.0698 -2.0169 1.1929
92 1 Ar 1.73006 2.40378 2.44538 0 0 0 -1.6727 0.4462 0.1381
93 1 Ar 2.39765 2.61556 3.29174 0 0 0 0.2449 0.2368 -0.3882
94 1 Ar 3.07618 3.19929 3.38209 0 0 0 -0.8507 0.7581 -1.5781
95 1 Ar 0.50505 2.20841 5.00444 1 0 0 -0.0914 0.8294 -1.0847
96 1 Ar 3.47904 3.85993 2.30519 0 0 0 1.1178 1.7448 -0.4698
97 1 Ar 3.14765 3.81899 4.20840 0 0 -1 0.1902 -1.6348 -0.5058
98 1 Ar 0.41934 1.27213 4.71309 1 1 -1 1.5454 0.4159 0.0394
99 1 Ar 4.60667 4.33684 0.54692 0 0 0 0.5970 -1.2778 -1.6805
100 1 Ar 4.49058 1.01158 4.81441 0 1 -1 -3.3618 0.8202 -1.6817
101 1 Ar 2.69430 2.06691 2.00285 0 0 0 -1.6625 1.3661 -3.2401
102 1 Ar 3.44041 4.26688 0.25366 0 0 0 -0.6404 1.5487 0.9501
103 1 Ar 3.49646 4.86539 0.97449 0 0 0 -0.7539 -0.7388 0.0600
104 1 Ar 2.16978 3.66867 3.56005 0 0 0 0.9383 1.5593 2.6899
105 1 Ar 4.45193 3.89568 2.34870 0 0 0 1.4244 -0.6962 0.0601
106 1 Ar 1.31998 4.83279 2.68890 1 0 0 -3.8910 1.2383 1.0330
107 1 Ar 3.94590 1.43100 4.02170 0 0 0 -0.0675 -0.2033 0.0794
108 1 Ar 3.65190 4.06011 3.26629 0 0 0 0.7674 0.2671 2.2912
ITEM: TIMESTEP
1000
ITEM: NUMBER OF ATOMS
108
ITEM: BOX BOUNDS pp pp pp
0.0000000000000000e+00 5.0387885741475218e+00
0.0000000000000000e+00 5.0387885741475218e+00
0.0000000000000000e+00 5.0387885741475218e+00
ITEM: ATOMS id type element x y z ix iy iz vx vy vz
1 1 Ar 1.01839 0.70356 3.94767 0 0 -1 -0.7612 -0.1816 -1.7433
2 1 Ar 0.54183 0.11619 0.81237 0 0 0 -2.1042 -0.8392 -1.8865
3 1 Ar 0.72735 4.09051 0.33478 0 -1 0 -0.3747 0.2009 -0.3638
4 1 Ar 0.56300 1.38250 0.87323 0 0 0 -0.7189 0.0090 1.3836
5 1 Ar 4.18747 0.62262 1.86497 -1 0 0 0.8458 1.2579 -0.9901
6 1 Ar 3.45978 1.44223 2.16680 -1 0 0 0.3884 1.0265 0.9869
7 1 Ar 1.52964 0.67964 2.24331 0 0 0 1.3017 -1.6929 -1.7862
8 1 Ar 4.54896 1.04056 2.66933 -1 0 0 0.3804 1.7343 -0.2990
9 1 Ar 5.02522 4.03265 4.52682 -1 -1 0 -0.1135 0.2355 -0.1734
10 1 Ar 2.80839 0.03959 4.55200 0 0 0 0.1548 -0.0573 0.0917
11 1 Ar 1.84400 4.81972 4.96546 0 -1 0 -0.3700 1.0191 1.1460
12 1 Ar 0.02633 0.32661 4.58577 0 0 0 0.5458 -0.5000 0.7244
13 1 Ar 3.62029 1.72634 4.80243 -1 0 -1 3.4755 0.8645 -1.1683
14 1 Ar 0.67498 2.63564 0.79207 0 0 0 1.8250 -0.1453 0.4560
15 1 Ar 4.80770 2.49473 1.03356 -1 0 0 -0.4872 0.9581 1.0652
16 1 Ar 4.90526 4.51238 1.76130 -1 0 0 -0.3223 0.9609 -0.5104
17 1 Ar 0.33781 2.25183 2.08408 0 0 0 0.1105 1.2679 0.9583
18 1 Ar 2.35357 1.49259 1.37057 0 0 0 -1.6116 0.7504 1.8000
19 1 Ar 0.54714 1.24668 2.26890 0 0 0 2.6225 -0.4973 -0.6925
20 1 Ar 0.36733 2.76970 3.34535 0 0 0 -0.4488 -0.7406 -0.1505
21 1 Ar 0.38529 0.67655 3.11353 0 0 0 0.8464 1.5235 -0.9753
22 1 Ar 4.85326 2.89219 4.24326 -1 0 0 -1.1000 -1.0370 0.2157
23 1 Ar 1.29433 1.68055 1.65539 0 0 1 0.3865 -1.1732 0.7555
24 1 Ar 4.78731 3.75164 3.44833 -1 0 0 -0.1608 -1.8172 0.4261
25 1 Ar 4.13299 3.57849 4.64023 -1 0 -1 0.2105 -0.7340 -0.4110
26 1 Ar 1.58399 2.78970 0.01033 0 0 0 1.3385 0.6937 -1.0715
27 1 Ar 1.29148 3.61412 0.93033 0 0 0 1.8126 -0.6748 -0.2308
28 1 Ar 0.89153 4.32977 1.53107 0 0 0 1.1539 -1.0121 0.6968
29 1 Ar 0.03841 3.60669 1.45029 0 0 0 -0.8572 -0.9923 1.0745
30 1 Ar 0.57561 0.20394 1.75051 0 1 0 -0.4194 0.4593 -0.3729
31 1 Ar 0.24808 4.37269 2.70891 0 0 0 0.2410 0.3200 -0.6654
32 1 Ar 4.02375 3.85027 1.19340 -1 0 0 0.8945 1.3724 -0.0930
33 1 Ar 3.09551 2.76344 2.28101 -1 0 0 -1.4046 1.9199 -2.1438
34 1 Ar 0.94864 2.97716 1.80397 0 0 0 1.0317 -0.7536 -2.5037
35 1 Ar 0.70311 3.33891 4.56652 0 0 0 0.9251 -0.2059 1.2919
36 1 Ar 4.89532 3.27985 0.35050 -1 0 1 -1.4149 1.4830 0.3424
37 1 Ar 2.79209 2.02435 4.26830 0 0 -1 1.2375 -0.6553 0.2882
38 1 Ar 2.86374 1.00262 4.79078 0 0 -1 0.7778 -2.0445 0.8470
39 1 Ar 2.19473 4.35259 0.87700 0 -1 0 -2.9841 -0.0385 0.4815
40 1 Ar 1.83439 4.81498 1.80142 0 -1 0 1.8428 -0.1849 1.1967
41 1 Ar 2.52917 4.31055 2.71003 0 -1 0 0.4203 0.5359 0.2369
42 1 Ar 3.44994 0.90658 3.01143 0 0 0 1.4214 -0.7311 0.9185
43 1 Ar 3.45496 4.82256 2.22544 0 -1 0 0.8988 0.4922 -0.3689
44 1 Ar 2.57275 0.44729 2.02822 0 0 0 0.9857 1.8616 1.3143
45 1 Ar 2.66914 1.02129 3.60724 0 0 0 0.5794 0.0586 -0.1214
46 1 Ar 2.48159 1.55016 2.40731 0 0 0 0.4618 2.4923 -0.2957
47 1 Ar 2.48828 3.60426 0.24559 0 -1 1 -1.9086 -2.1865 1.6579
48 1 Ar 0.89201 4.80161 4.33286 0 -1 0 -0.3998 0.0622 1.6539
49 1 Ar 1.93538 0.71266 4.50044 0 0 -1 -0.3664 -3.3827 1.8343
50 1 Ar 3.23981 2.78471 4.91313 0 0 -1 0.1212 -0.4227 -0.1194
51 1 Ar 4.01204 2.80059 1.72162 0 0 0 1.1557 -0.4630 -0.0915
52 1 Ar 3.53508 1.88043 1.15563 0 0 0 -0.0495 -0.3375 -1.6513
53 1 Ar 1.38975 0.80044 1.04539 0 0 0 -0.9940 -1.2173 -0.7657
54 1 Ar 3.22432 0.91511 1.08930 0 0 0 -0.0764 -1.0185 -2.8815
55 1 Ar 2.94136 4.24563 1.62710 0 -1 0 -1.0207 -0.7336 -2.0260
56 1 Ar 1.56302 3.96912 2.29487 0 0 0 -1.8948 2.1616 0.7867
57 1 Ar 1.54699 1.05354 3.14882 0 0 0 -0.0811 -1.2396 0.9341
58 1 Ar 1.36394 3.23134 2.93504 0 0 0 0.7395 -2.1085 0.2142
59 1 Ar 1.14309 0.47547 4.98481 0 0 0 0.5917 1.8425 -0.6190
60 1 Ar 4.70558 1.88894 3.48449 -1 0 0 -1.5828 1.2076 -0.1575
61 1 Ar 1.62036 1.69009 4.92602 0 0 -1 -1.4362 -0.7632 1.3674
62 1 Ar 2.22485 3.55605 1.44830 0 0 0 -1.2312 -1.1018 -0.5297
63 1 Ar 2.76084 2.76305 0.81415 0 0 0 -1.1115 2.2059 -0.2522
64 1 Ar 1.65501 2.55260 0.96745 0 0 0 -0.3616 -0.9053 -2.8384
65 1 Ar 1.85661 1.75052 3.90204 0 0 0 -1.1572 2.3506 -1.1537
66 1 Ar 2.32112 3.34771 2.49901 0 0 0 1.0893 -0.4121 3.1188
67 1 Ar 1.80461 4.55274 3.81371 0 0 0 -0.2990 -0.7799 -0.7124
68 1 Ar 0.26312 3.34557 2.55104 0 0 0 -1.2250 1.5003 -0.1693
69 1 Ar 0.83171 2.04592 4.14329 0 0 0 -0.3811 -0.0401 0.7323
70 1 Ar 1.58181 3.89470 4.85810 0 0 0 2.3274 0.4974 2.7607
71 1 Ar 2.43865 1.82924 0.34200 0 0 1 -1.2098 -1.4433 -0.9193
72 1 Ar 0.75751 3.78405 3.58047 0 0 0 0.7441 -1.7672 -0.5849
73 1 Ar 3.45766 0.40032 0.25426 0 0 0 1.3259 0.5082 0.0426
74 1 Ar 4.50284 0.66005 3.73733 0 0 -1 -0.2273 0.2939 1.7652
75 1 Ar 4.73922 1.86736 0.28623 0 0 0 0.0499 1.8354 -0.7022
76 1 Ar 3.08752 1.95395 3.02286 0 0 -1 -0.0676 1.8760 -1.4388
77 1 Ar 4.63671 0.16582 0.86227 0 0 0 -1.5431 -0.8296 -0.8021
78 1 Ar 4.09127 1.23073 0.60289 0 0 0 -0.1889 -0.3846 -0.7425
79 1 Ar 4.41229 4.94239 2.80546 0 -1 0 0.9634 -0.2438 -0.1516
80 1 Ar 3.75002 2.62269 3.90948 0 0 0 0.5424 1.9798 -1.9625
81 1 Ar 2.74729 0.00680 3.60457 0 0 0 0.2388 2.7840 0.8557
82 1 Ar 4.32649 2.00611 2.13437 0 0 0 0.9840 -1.4980 -1.2018
83 1 Ar 0.08986 4.78877 3.71032 1 -1 0 -0.5865 -0.1656 1.2433
84 1 Ar 3.59928 0.34221 4.09053 0 0 0 -3.2010 0.6104 1.4287
85 1 Ar 1.65234 2.78765 3.87851 0 0 -1 -0.7828 0.9061 -1.6344
86 1 Ar 3.80357 3.07020 0.69138 0 0 0 1.8652 -0.3923 -0.5174
87 1 Ar 4.19784 2.97973 3.00667 0 0 0 0.8367 -0.8422 0.7917
88 1 Ar 4.05393 4.69346 4.61608 0 0 -1 1.3398 -0.3354 -0.7916
89 1 Ar 2.56779 0.11744 0.55348 0 0 0 -0.5187 -3.4189 -0.8612
90 1 Ar 4.85391 1.46381 1.59231 0 0 0 1.1023 0.3578 0.2081
91 1 Ar 0.91490 1.74444 3.16849 1 0 0 -2.5324 -0.9615 0.0689
92 1 Ar 1.62360 2.20522 2.60354 0 0 0 -0.4057 -0.7315 0.5914
93 1 Ar 2.41583 2.53311 3.30602 0 0 0 0.8849 0.7004 -0.1693
94 1 Ar 3.24455 3.30309 3.18899 0 0 0 -1.7728 0.0047 2.5261
95 1 Ar 0.45424 2.42680 4.92785 1 0 0 -0.7827 2.1199 0.1972
96 1 Ar 3.40374 3.74867 2.23605 0 0 0 -1.4619 -1.6254 -0.2989
97 1 Ar 3.30659 3.60966 4.27616 0 0 -1 -2.5464 -0.8074 -1.4086
98 1 Ar 0.19784 1.39167 4.66091 1 1 -1 -0.7640 -0.2709 -0.7998
99 1 Ar 4.72518 4.27958 0.56202 0 0 0 -0.3381 0.1279 1.0929
100 1 Ar 4.29761 1.02922 4.71360 0 1 -1 -0.9595 -1.0848 -1.8956
101 1 Ar 2.11483 2.52408 1.80832 0 0 0 -0.3505 1.3670 0.8867
102 1 Ar 3.30599 4.22794 0.15416 0 0 0 -0.8619 -0.1060 1.4654
103 1 Ar 3.58363 4.85729 1.04420 0 0 0 2.1470 -0.9778 0.4996
104 1 Ar 2.49880 3.87033 3.73447 0 0 0 2.7233 -1.2103 0.1198
105 1 Ar 4.35810 3.66240 2.20290 0 0 0 0.0974 -0.5853 -1.5552
106 1 Ar 1.15100 5.01249 3.10256 1 0 0 2.2935 -0.2328 2.6693
107 1 Ar 3.60307 1.36740 3.80275 0 0 0 -1.0927 0.1025 0.3257
108 1 Ar 3.74283 4.54040 3.58989 0 0 0 0.1446 2.8360 0.8860
ITEM: TIMESTEP
1040
ITEM: NUMBER OF ATOMS
108
ITEM: BOX BOUNDS pp pp pp
0.0000000000000000e+00 5.0387885741475218e+00
0.0000000000000000e+00 5.0387885741475218e+00
0.0000000000000000e+00 5.0387885741475218e+00
ITEM: ATOMS id type element x y z ix iy iz vx vy vz
1 1 Ar 0.86652 0.64166 4.06971 0 0 -1 0.6810 -1.5644 -0.2203
2 1 Ar 0.51533 5.00598 0.67473 0 -1 0 1.7316 -1.6066 2.8265
3 1 Ar 0.69545 3.96989 0.40661 0 -1 0 0.8664 -1.6895 2.3593
4 1 Ar 0.72076 1.52524 0.76663 0 0 0 -0.3296 1.0400 1.4969
5 1 Ar 4.05194 0.66498 1.67404 -1 0 0 -1.8182 -0.0300 0.1334
6 1 Ar 3.50436 1.50588 1.97811 -1 0 0 1.6026 0.9317 -2.0564
7 1 Ar 1.67833 0.65567 1.95346 0 0 0 1.1850 0.6095 -0.4673
8 1 Ar 4.57819 1.25159 2.73057 -1 0 0 -1.7368 0.0418 -2.1941
9 1 Ar 0.06558 4.00856 4.48963 0 -1 0 -1.5892 -1.3692 -0.1164
10 1 Ar 2.64931 4.44594 4.57924 0 -1 0 -0.3756 -3.2729 -0.5493
11 1 Ar 1.55767 0.08528 0.16910 0 0 1 -0.7064 3.0696 -0.9695
12 1 Ar 4.99448 0.20879 4.65022 -1 0 0 -1.1564 -0.2240 -1.4921
13 1 Ar 3.98226 2.09722 4.69365 -1 0 -1 1.6479 -0.3206 1.0060
14 1 Ar 0.63514 2.50303 0.90206 0 0 0 -0.4698 -1.9447 1.0461
15 1 Ar 4.78516 2.37823 1.41126 -1 0 0 -0.2665 -1.0631 3.6177
16 1 Ar 4.60662 4.76479 1.60519 -1 0 0 -1.7441 0.8556 -0.3997
17 1 Ar 0.37538 2.40366 2.33268 0 0 0 0.8858 -0.2945 0.8077
18 1 Ar 2.42320 1.52386 1.30818 0 0 0 0.1143 0.9551 1.4776
19 1 Ar 0.78298 1.27773 2.31208 0 0 0 -0.9717 -0.2194 -0.4622
20 1 Ar 0.35917 2.74738 3.36958 0 0 0 0.3028 1.4459 -0.0001
21 1 Ar 0.40448 0.48426 3.02452 0 0 0 -0.1267 -1.8580 -0.5284
22 1 Ar 4.76382 2.64151 4.20200 -1 0 0 0.7265 -0.6931 0.3537
23 1 Ar 1.27610 1.86817 1.52841 0 0 1 -1.9379 1.1027 -2.0260
24 1 Ar 4.72532 3.58881 3.63603 -1 0 0 -0.3333 -0.2980 0.7659
25 1 Ar 4.17376 3.49013 4.73794 -1 0 -1 0.2559 -0.1255 0.5788
26 1 Ar 1.95424 2.77059 4.79693 0 0 -1 2.7127 -1.2425 0.2252
27 1 Ar 1.35266 3.17694 0.52102 0 0 0 0.4476 -1.7367 -2.8808
28 1 Ar 0.74519 4.15985 1.53306 0 0 0 -2.2869 0.4749 1.4951
29 1 Ar 0.23861 3.40422 1.37985 0 0 0 0.6462 -1.2788 -0.0796
30 1 Ar 0.50739 0.27293 1.77713 0 1 0 -0.6293 -0.8687 -0.5239
31 1 Ar 0.44217 4.61162 2.65471 0 0 0 -0.2820 1.3311 -0.6858
32 1 Ar 4.05964 3.80479 1.23517 -1 0 0 0.1991 0.6281 -1.7319
33 1 Ar 3.04659 2.32974 2.13221 -1 0 0 -0.0353 -2.8359 3.2784
34 1 Ar 1.24359 3.14013 1.74249 0 0 0 -0.6684 2.3506 -2.0363
35 1 Ar 0.77077 3.41308 4.48237 0 0 0 0.2816 -0.8623 -1.4148
36 1 Ar 5.01579 3.30509 0.40457 -1 0 1 0.9215 -0.1726 0.3149
37 1 Ar 2.73929 2.05579 4.34133 0 0 -1 -0.9786 1.2990 1.1828
38 1 Ar 3.04182 0.99818 4.90473 0 0 -1 2.2933 -1.7450 -0.1507
39 1 Ar 1.57489 4.40436 0.93734 0 -1 0 -0.5360 0.3407 -0.0969
40 1 Ar 2.22072 4.70866 1.80990 0 -1 0 -0.0296 0.3928 -1.7320
41 1 Ar 2.71354 4.54595 2.66700 0 -1 0 1.6831 0.4284 0.4129
42 1 Ar 3.72879 0.53501 2.94678 0 0 0 -0.2037 1.2186 0.1324
43 1 Ar 3.63230 4.89755 2.22157 0 -1 0 0.1930 -1.3110 0.3927
44 1 Ar 2.83584 0.76819 2.31024 0 0 0 -0.1287 -0.6974 1.7141
45 1 Ar 2.60029 1.37167 3.61488 0 0 0 1.5052 0.9104 -1.0662
46 1 Ar 2.49781 1.70343 2.61771 0 0 0 1.2177 -1.3703 3.2180
47 1 Ar 2.53769 3.41337 0.42366 0 -1 1 0.7176 -0.6477 0.7228
48 1 Ar 0.78059 4.65425 4.57828 0 -1 0 -2.1427 1.1098 1.2576
49 1 Ar 2.10876 0.61075 4.17558 0 0 -1 0.2591 -0.0067 -2.0409
50 1 Ar 3.07272 2.61750 0.08169 0 0 0 -2.1967 0.0785 2.5227
51 1 Ar 3.85486 2.98667 1.72864 0 0 0 -0.7341 -0.2076 0.9231
52 1 Ar 3.56430 1.98037 0.95210 0 0 0 -0.1972 0.9332 0.3327
53 1 Ar 1.34792 0.44327 1.00248 0 0 0 -0.2972 -1.1023 1.2085
54 1 Ar 3.09574 0.94908 0.97144 0 0 0 2.3305 0.9590 -0.1394
55 1 Ar 2.74579 4.07604 1.15140 0 -1 0 0.6370 -1.9312 -0.8217
56 1 Ar 1.36667 4.12428 2.77407 0 0 0 1.7690 -0.8040 1.9348
57 1 Ar 1.83974 0.88881 3.07912 0 0 0 1.0311 -0.2924 -1.4249
58 1 Ar 1.24009 2.99165 2.73765 0 0 0 -0.6768 -0.8869 1.3326
59 1 Ar 0.73776 0.73108 0.01819 0 0 1 -1.0247 -0.1675 -0.1812
60 1 Ar 4.50885 2.03808 3.44374 -1 0 0 1.7806 0.8184 -0.7811
61 1 Ar 1.22897 1.88956 4.93203 0 0 -1 0.9024 3.7393 -1.1182
62 1 Ar 2.19037 3.48469 1.59173 0 0 0 -1.3839 -1.0205 -1.3769
63 1 Ar 2.76054 2.63849 1.06835 0 0 0 -1.7124 0.8541 -0.6904
64 1 Ar 1.83223 2.29762 0.77282 0 0 0 -1.9506 0.5437 0.3619
65 1 Ar 1.68473 1.85205 3.74400 0 0 0 -1.2194 -1.2456 1.2327
66 1 Ar 2.22865 3.43211 2.48180 0 0 0 -1.2003 -0.4185 -0.1952
67 1 Ar 1.76237 4.60327 4.17525 0 0 0 1.3666 1.9791 0.3828
68 1 Ar 0.36586 3.41186 2.53048 0 0 0 0.8421 1.2469 0.0641
69 1 Ar 0.78924 2.12685 4.07051 0 0 0 -1.1695 0.5090 -2.2749
70 1 Ar 1.70949 3.99867 4.93933 0 0 0 2.1593 0.5304 0.6214
71 1 Ar 2.63578 1.78553 0.33593 0 0 1 1.9339 1.3044 -0.5288
72 1 Ar 0.77328 3.79186 3.45813 0 0 0 -2.1782 2.4144 -1.0438
73 1 Ar 3.62572 5.02950 0.13730 0 -1 0 -2.0308 -1.5175 0.6482
74 1 Ar 4.54889 0.62409 3.56551 0 0 -1 -0.7660 0.2771 1.7594
75 1 Ar 4.76748 2.10018 0.43581 0 0 0 1.9495 0.0213 0.1428
76 1 Ar 3.67307 2.27894 2.99625 0 0 -1 1.5916 1.3794 -0.9718
77 1 Ar 4.65699 0.36668 0.76130 0 0 0 1.4277 1.8794 -0.3917
78 1 Ar 4.13445 1.32998 0.65073 0 0 0 1.5226 -0.8199 -0.4847
79 1 Ar 4.57330 5.00483 2.70896 0 -1 0 1.4555 -0.3390 -1.7603
80 1 Ar 3.67957 2.67452 3.97430 0 0 0 -2.4565 1.0013 0.0263
81 1 Ar 2.60240 0.17982 3.42091 0 0 0 -1.1950 1.5938 0.1192
82 1 Ar 4.33979 2.09786 2.16161 0 0 0 -0.9612 -1.2974 -1.5272
83 1 Ar 5.00717 4.72491 3.65276 0 -1 0 0.2075 -0.9578 -0.7290
84 1 Ar 3.28939 0.55998 4.01844 0 0 0 -0.9377 -0.0275 -1.6640
85 1 Ar 1.39325 2.95606 3.80729 0 0 -1 0.5637 -1.2555 -1.7997
86 1 Ar 3.99555 2.81491 0.57015 0 0 0 0.5693 -0.8052 -0.0828
87 1 Ar 4.47877 2.93037 2.82220 0 0 0 1.8462 2.9137 0.2429
88 1 Ar 4.31796 4.55942 4.48970 0 0 -1 -0.8288 -1.4611 -1.9431
89 1 Ar 2.67240 0.01975 0.69035 0 0 0 -1.6931 0.6703 -1.0540
90 1 Ar 4.97543 1.33778 1.61982 0 0 0 0.8408 0.0484 0.4292
91 1 Ar 0.29497 1.66648 3.15682 1 0 0 -0.7043 -0.3878 0.8906
92 1 Ar 1.28285 1.83061 2.82425 0 0 0 -1.8130 -1.0906 1.0752
93 1 Ar 2.43247 2.60896 3.48456 0 0 0 1.1999 0.8712 0.5287
94 1 Ar 3.31247 3.23095 3.18760 0 0 0 0.8724 0.0538 -0.6889
95 1 Ar 0.44351 2.57356 4.85739 1 0 0 1.1029 -0.9985 0.3996
96 1 Ar 3.24625 3.81275 2.32437 0 0 0 0.0377 0.6959 -1.2522
97 1 Ar 3.08721 3.57623 4.42250 0 0 -1 -1.7745 0.7371 0.4025
98 1 Ar 0.13995 1.33892 4.39046 1 1 -1 -0.6554 1.9838 -1.5176
99 1 Ar 4.65085 4.40503 0.54043 0 0 0 -1.3861 -0.6143 -0.9025
100 1 Ar 4.31848 1.00212 4.67927 0 1 -1 -0.8485 1.0457 0.2964
101 1 Ar 1.94954 2.38847 2.06586 0 0 0 0.3435 -0.3995 1.7742
102 1 Ar 3.35411 4.11311 0.35755 0 0 0 2.5451 -1.7525 -0.8334
103 1 Ar 3.55774 4.93054 1.23933 0 0 0 -0.2570 1.0030 -0.5149
104 1 Ar 2.35158 3.88538 3.58936 0 0 0 -0.3087 0.2010 1.1796
105 1 Ar 4.34296 3.86409 2.44839 0 0 0 0.1698 2.1848 2.7020
106 1 Ar 1.22996 0.01351 3.16721 1 1 0 0.6580 -0.0801 0.2117
107 1 Ar 3.70309 1.55458 3.83915 0 0 0 -1.3203 -1.5033 -0.2514
108 1 Ar 3.80757 4.81478 3.58167 0 0 0 0.6277 -0.2744 0.3051
ITEM: TIMESTEP
1080
ITEM: NUMBER OF ATOMS
108
ITEM: BOX BOUNDS pp pp pp
0.0000000000000000e+00 5.0387885741475218e+00
0.0000000000000000e+00 5.0387885741475218e+00
0.0000000000000000e+00 5.0387885741475218e+00
ITEM: ATOMS id type element x y z ix iy iz vx vy vz
1 1 Ar 0.92350 0.42719 3.96178 0 0 -1 -0.5627 -0.3513 -0.2385
2 1 Ar 0.64310 4.73578 0.73094 0 -1 0 1.5276 -1.2930 -0.5311
3 1 Ar 0.78125 3.66949 0.69855 0 -1 0 -0.4380 -0.6430 0.0739
4 1 Ar 0.55350 1.27044 0.90265 0 0 0 0.9253 -0.9265 1.5637
5 1 Ar 4.04583 0.55266 1.70008 -1 0 0 -0.3061 0.1754 -0.2864
6 1 Ar 3.26142 1.45013 1.87118 -1 0 0 -1.3215 -0.4529 1.8207
7 1 Ar 1.99159 0.88768 1.93279 0 0 0 -0.2071 -0.5073 -0.5374
8 1 Ar 4.57204 1.18277 2.45080 -1 0 0 1.9779 2.4281 0.5505
9 1 Ar 0.17474 3.86460 4.62686 0 -1 0 2.1685 -0.1388 -0.9774
10 1 Ar 2.68352 4.54955 4.64022 0 -1 0 -1.4171 0.2866 -0.8694
11 1 Ar 1.49297 0.39287 5.03267 0 0 0 -3.2741 -0.1346 3.2158
12 1 Ar 4.72817 0.14367 4.61440 -1 0 0 -1.5062 -1.9174 0.9577
13 1 Ar 4.09764 2.09245 4.91226 -1 0 -1 -0.1100 0.5348 0.2182
14 1 Ar 0.81129 2.65370 0.90787 0 0 0 0.6424 0.7454 -0.0375
15 1 Ar 4.82246 2.30557 1.45184 -1 0 0 0.1907 0.8140 -0.1977
16 1 Ar 4.53932 4.62366 1.39740 -1 0 0 1.6943 -1.3441 -1.5596
17 1 Ar 0.37285 2.23175 2.45497 0 0 0 -2.1592 -0.6141 1.4034
18 1 Ar 2.32547 1.71899 1.71558 0 0 0 -0.2949 0.8143 -0.1378
19 1 Ar 0.80674 1.03836 2.26657 0 0 0 1.4621 -0.4274 1.1618
20 1 Ar 0.35596 3.04734 3.28939 0 0 0 -0.9129 -0.6368 -0.6059
21 1 Ar 0.26674 0.42953 3.10008 0 0 0 -0.5819 1.9197 1.8887
22 1 Ar 4.94938 2.63844 4.26966 -1 0 0 1.3154 -0.8781 -2.1408
23 1 Ar 1.16415 1.90091 1.90392 0 0 1 0.6757 -0.5317 1.4054
24 1 Ar 4.40266 3.61545 3.73445 -1 0 0 -1.9251 0.3026 0.5591
25 1 Ar 4.06098 3.19819 4.59414 -1 0 -1 -2.0535 0.2134 0.2285
26 1 Ar 2.25995 2.84741 4.79297 0 0 -1 0.0350 -1.0991 -0.3761
27 1 Ar 1.39848 3.12071 0.10671 0 0 0 1.3145 0.6535 -0.0922
28 1 Ar 0.52515 4.24609 1.60262 0 0 0 -1.3164 1.2498 -0.6194
29 1 Ar 4.82518 3.47614 1.49368 -1 0 0 -1.3652 0.7374 1.2778
30 1 Ar 0.21707 0.25107 1.74117 0 1 0 -1.8709 -0.0923 -0.4875
31 1 Ar 0.66942 4.64932 2.79067 0 0 0 0.7349 -1.8124 -0.5570
32 1 Ar 4.03020 3.79646 1.20638 -1 0 0 -3.0766 -0.7557 -0.4502
33 1 Ar 2.95049 2.49171 2.26109 -1 0 0 -0.3753 1.1669 0.3339
34 1 Ar 0.99506 3.33143 1.62864 0 0 0 -0.3108 -1.7375 2.0475
35 1 Ar 0.99161 3.34007 4.16655 0 0 0 0.3713 0.0978 -2.0926
36 1 Ar 5.03096 3.23112 0.36010 -1 0 1 0.9842 -0.1962 0.0524
37 1 Ar 2.86347 2.03616 4.49539 0 0 -1 0.1052 -0.9349 2.4575
38 1 Ar 3.09976 0.88914 4.89016 0 0 -1 -2.4043 0.0844 -1.7491
39 1 Ar 1.62206 4.42597 0.94086 0 -1 0 -0.1143 -0.0817 0.0939
40 1 Ar 2.33475 4.90656 1.60499 0 -1 0 1.9146 1.7043 0.2970
41 1 Ar 2.76626 4.33373 2.70758 0 -1 0 -1.0484 -2.0896 -0.1480
42 1 Ar 3.53687 0.85986 3.05031 0 0 0 -1.1943 1.7398 0.3668
43 1 Ar 3.66063 4.72978 2.16632 0 -1 0 -0.2595 -0.0857 -1.5609
44 1 Ar 2.81152 0.44664 2.36290 0 0 0 0.7342 -2.2260 -0.8216
45 1 Ar 2.79387 1.18243 3.73805 0 0 0 1.8171 -1.0974 -1.6167
46 1 Ar 2.45753 1.59532 2.71519 0 0 0 0.5211 -0.8474 1.0007
47 1 Ar 2.59725 3.58584 0.44020 0 -1 1 0.2284 0.5930 -0.5135
48 1 Ar 0.72449 4.71677 4.84120 0 -1 0 0.3147 -0.5014 -0.6583
49 1 Ar 1.96740 0.73961 4.16658 0 0 -1 0.1444 -0.9198 -1.1428
50 1 Ar 3.36193 2.72926 0.11780 0 0 0 0.2536 -0.2117 -0.8259
51 1 Ar 3.80722 2.83349 1.83371 0 0 0 1.4218 -0.6969 -1.2719
52 1 Ar 3.53818 2.16306 0.98057 0 0 0 0.7604 -1.2879 -0.0564
53 1 Ar 1.30917 0.47357 1.23572 0 0 0 -0.6188 0.1211 0.1298
54 1 Ar 3.39621 0.86955 0.85184 0 0 0 -1.0135 0.0333 -0.0510
55 1 Ar 3.03301 4.08967 1.08890 0 -1 0 -0.5368 0.5540 -0.8021
56 1 Ar 1.65005 4.03988 2.94953 0 0 0 0.4469 -1.4929 0.2235
57 1 Ar 1.56092 0.99381 3.09546 0 0 0 -2.9694 1.2541 2.0292
58 1 Ar 1.19239 3.01338 2.59597 0 0 0 -0.7425 2.0866 -0.7309
59 1 Ar 0.48668 0.68741 4.88447 0 0 0 -0.3685 0.2989 -2.1817
60 1 Ar 4.71350 2.18061 3.39478 -1 0 0 1.8046 1.1457 -1.0828
61 1 Ar 1.58643 2.11485 4.85409 0 0 -1 0.7412 0.0890 1.6224
62 1 Ar 1.86212 3.44767 1.14865 0 0 0 -1.1464 0.6263 -1.3703
63 1 Ar 2.58563 2.62163 1.33238 0 0 0 -0.8107 1.6951 0.7200
64 1 Ar 1.74433 2.20377 0.84158 0 0 0 0.7577 -1.0087 0.7316
65 1 Ar 1.74101 1.73593 3.89366 0 0 0 0.5493 -0.0117 -2.0906
66 1 Ar 2.37339 3.20190 2.75288 0 0 0 1.3168 0.6581 -0.4321
67 1 Ar 1.78884 4.75275 4.13677 0 0 0 0.3835 -1.6361 0.4213
68 1 Ar 0.41137 3.55726 2.38355 0 0 0 -1.0641 -0.5221 0.8854
69 1 Ar 0.78958 2.28925 3.84858 0 0 0 0.8560 0.5538 0.0171
70 1 Ar 1.55823 4.19396 4.94317 0 0 0 -2.5119 1.6486 -1.5047
71 1 Ar 2.66428 1.55344 0.48599 0 0 1 -0.8717 -0.4141 1.5049
72 1 Ar 0.66611 4.04713 3.55518 0 0 0 1.3262 2.0868 1.8626
73 1 Ar 3.48977 4.87796 0.09049 0 -1 0 1.4004 0.3495 1.3106
74 1 Ar 4.40855 0.76393 3.57139 0 0 -1 0.2029 0.0953 -2.9098
75 1 Ar 5.02370 2.10683 0.51721 0 0 0 2.0916 1.6746 -0.7071
76 1 Ar 3.61808 2.49550 3.02504 0 0 -1 -0.3203 0.4725 -1.8157
77 1 Ar 4.97397 0.44954 0.76043 0 0 0 -1.1331 1.2752 0.2012
78 1 Ar 4.23355 1.37811 0.64457 0 0 0 -0.7953 0.4566 -1.1127
79 1 Ar 4.59749 0.01218 2.45408 0 0 0 -0.2530 -2.5961 -0.8417
80 1 Ar 3.65023 2.53157 4.13039 0 0 0 2.2772 -1.0394 2.3319
81 1 Ar 2.41375 0.25001 3.42435 0 0 0 0.0148 -0.2491 1.3374
82 1 Ar 4.26614 2.06183 2.37270 0 0 0 -0.2296 -0.3151 2.1870
83 1 Ar 4.71381 4.85903 3.63143 0 -1 0 -2.9238 0.6920 0.5768
84 1 Ar 3.38027 0.28749 4.00106 0 0 0 0.9331 -2.5325 1.9180
85 1 Ar 1.77541 2.66752 3.79166 0 0 -1 1.9597 0.0168 0.5136
86 1 Ar 4.20610 2.84837 0.76570 0 0 0 1.8022 0.8119 2.8538
87 1 Ar 4.51264 3.06369 2.55114 0 0 0 -0.9382 -0.1053 -2.1727
88 1 Ar 3.84483 4.24420 4.41961 0 0 -1 -1.6888 -2.5421 -1.7771
89 1 Ar 2.28078 0.09396 0.48409 0 0 0 -0.5381 -0.0733 -0.3615
90 1 Ar 4.71729 1.22776 1.46763 0 0 0 -1.5339 -1.6867 0.3864
91 1 Ar 0.40297 1.49488 3.21302 1 0 0 0.4510 0.9203 0.2897
92 1 Ar 1.42312 1.94431 3.01846 0 0 0 0.5547 1.2889 0.1090
93 1 Ar 2.77874 2.70080 3.55484 0 0 0 3.5025 -0.9984 1.9942
94 1 Ar 3.36176 3.62649 2.98715 0 0 0 0.5130 2.5987 -0.4343
95 1 Ar 0.62213 2.47096 4.86974 1 0 0 2.0677 -1.6742 -0.4277
96 1 Ar 3.33088 3.72124 1.96389 0 0 0 0.1592 -0.8017 0.6123
97 1 Ar 2.94477 3.53921 4.43073 0 0 -1 1.4183 3.2212 -1.4188
98 1 Ar 4.91689 1.55644 4.22375 0 1 -1 -1.3230 0.5946 -0.0633
99 1 Ar 4.52947 4.44745 0.20903 0 0 0 -0.3947 0.8916 -0.4681
100 1 Ar 4.18284 1.03528 4.66237 0 1 -1 0.2273 -0.3470 1.0422
101 1 Ar 1.93148 2.42496 2.26855 0 0 0 -0.6195 0.9863 -0.3019
102 1 Ar 3.49650 3.77335 0.24149 0 0 0 0.8531 -0.2952 -0.2965
103 1 Ar 3.48210 5.01748 1.12140 0 0 0 0.2354 -0.5355 0.7089
104 1 Ar 2.29640 3.86603 3.75939 0 0 0 -0.2833 -0.2094 0.6278
105 1 Ar 4.47291 4.10691 2.87539 0 0 0 2.4841 -1.7755 0.4399
106 1 Ar 1.48394 0.00593 3.07074 1 1 0 1.5252 1.1002 -1.4478
107 1 Ar 3.93868 1.67476 3.77373 0 0 0 1.0839 2.2883 -0.6427
108 1 Ar 3.73171 4.82489 3.18896 0 0 0 -2.1398 1.4853 -1.9586
ITEM: TIMESTEP
1120
ITEM: NUMBER OF ATOMS
108
ITEM: BOX BOUNDS pp pp pp
0.0000000000000000e+00 5.0387885741475218e+00
0.0000000000000000e+00 5.0387885741475218e+00
0.0000000000000000e+00 5.0387885741475218e+00
ITEM: ATOMS id type element x y z ix iy iz vx vy vz
1 1 Ar 0.99135 0.33916 3.97929 0 0 -1 -1.2808 0.0674 1.5860
2 1 Ar 0.39171 4.77204 0.68864 0 -1 0 -3.3398 0.4587 -0.4751
3 1 Ar 0.79033 3.78524 0.79642 0 -1 0 -0.8835 -0.3427 -0.6549
4 1 Ar 0.74072 1.32431 1.13310 0 0 0 0.4839 0.5046 0.1282
5 1 Ar 3.88283 0.59843 1.96852 -1 0 0 -0.2165 0.2227 1.6493
6 1 Ar 3.26527 1.41445 1.87766 -1 0 0 2.0751 -0.4753 -1.6441
7 1 Ar 1.91361 0.72490 2.10550 0 0 0 1.2816 1.2696 0.6093
8 1 Ar 0.04867 1.21968 2.47235 0 0 0 1.1370 0.4660 -0.9602
9 1 Ar 0.31122 3.73262 4.37043 0 -1 0 -0.8552 1.0894 -1.6649
10 1 Ar 2.60334 4.61887 4.60019 0 -1 0 -0.0037 -0.2444 -0.8143
11 1 Ar 1.07887 0.59483 0.22925 0 0 1 -0.6800 2.3387 -1.1539
12 1 Ar 4.44116 0.03268 4.55574 -1 0 0 -1.8690 -0.5519 -2.0610
13 1 Ar 4.32479 2.22095 5.02526 -1 0 -1 0.0632 0.4442 0.3487
14 1 Ar 0.78270 2.66840 0.78335 0 0 0 -0.5683 0.3492 0.5468
15 1 Ar 4.89096 2.43889 1.45506 -1 0 0 -0.2984 1.6274 -1.8959
16 1 Ar 4.54215 4.55306 1.35118 -1 0 0 -0.7257 0.6983 1.6050
17 1 Ar 0.47060 2.25062 2.46368 0 0 0 1.8394 0.8655 0.6898
18 1 Ar 2.33894 1.78822 1.74691 0 0 0 -2.9905 0.5311 0.8056
19 1 Ar 0.93929 0.72276 2.35269 0 0 0 0.6248 -1.7907 -0.2553
20 1 Ar 0.22693 3.20426 3.41390 0 0 0 -0.9055 1.2904 1.4562
21 1 Ar 0.35980 0.35544 3.17289 0 0 0 -0.1854 -2.3363 -0.5011
22 1 Ar 5.03520 2.72893 4.30564 -1 0 0 2.6662 -1.9387 1.8949
23 1 Ar 1.20623 1.81487 1.83298 0 0 1 0.5958 -0.2685 -0.8507
24 1 Ar 4.37348 3.23541 3.73968 -1 0 0 0.1581 -0.1876 -0.8742
25 1 Ar 4.31924 3.32316 4.80898 -1 0 -1 -1.2850 -1.3226 -0.5910
26 1 Ar 2.38949 2.64216 4.62913 0 0 -1 -1.4457 -1.8768 0.5365
27 1 Ar 1.50437 3.05791 0.00756 0 0 0 1.0194 -0.7476 -0.7710
28 1 Ar 0.51891 4.29125 1.58700 0 0 0 0.5385 0.2133 -0.1471
29 1 Ar 4.79971 3.48784 1.47907 -1 0 0 -0.2013 0.1277 -1.4248
30 1 Ar 0.17950 0.41680 1.67774 0 1 0 -0.1427 0.5528 -0.3928
31 1 Ar 0.74496 4.63190 2.69680 0 0 0 0.2170 2.3976 0.7198
32 1 Ar 3.75808 3.72129 1.36768 -1 0 0 0.0073 -0.5642 0.5715
33 1 Ar 2.94477 2.41911 2.24538 -1 0 0 -0.7260 -1.3808 1.4400
34 1 Ar 0.98624 3.02892 1.67837 0 0 0 0.3256 -2.5048 -0.5246
35 1 Ar 1.11200 3.32753 4.02565 0 0 0 0.1053 1.7020 0.5081
36 1 Ar 0.31652 3.10290 0.18183 0 0 1 2.4387 0.2555 -0.7184
37 1 Ar 2.96837 1.73258 4.80868 0 0 -1 2.6378 -0.7663 0.5243
38 1 Ar 2.68212 0.64147 4.78655 0 0 -1 -0.4016 -0.8457 2.1330
39 1 Ar 1.62987 4.57273 1.02331 0 -1 0 -2.0473 1.2129 -0.0090
40 1 Ar 2.52927 0.14440 1.44277 0 0 0 0.2494 1.7005 -1.1405
41 1 Ar 2.43559 4.51821 2.49383 0 -1 0 0.4056 1.4059 -1.9415
42 1 Ar 3.58985 0.98898 2.86982 0 0 0 -0.1070 -1.0205 -0.3806
43 1 Ar 3.57264 4.35135 2.10759 0 -1 0 -0.0954 -1.2448 1.1077
44 1 Ar 2.86028 0.40406 2.32156 0 0 0 -0.7198 1.8906 -0.1349
45 1 Ar 2.93655 1.25469 3.81111 0 0 0 1.4773 0.0440 0.3495
46 1 Ar 2.45567 1.45387 2.87849 0 0 0 -0.6529 -0.4489 -0.0940
47 1 Ar 2.36059 3.68458 0.09809 0 -1 1 -0.7709 1.0917 -1.9550
48 1 Ar 0.36552 4.88980 4.65330 0 -1 0 -0.1747 -0.1673 2.0388
49 1 Ar 1.83905 0.58638 4.32627 0 0 -1 -0.8664 -0.3610 1.1076
50 1 Ar 3.28084 2.80278 0.32795 0 0 0 0.6022 0.6685 1.9685
51 1 Ar 3.76603 2.65973 1.66431 0 0 0 0.6606 0.2259 -1.0530
52 1 Ar 3.40482 1.88896 1.05736 0 0 0 -1.3980 -0.3922 -0.4203
53 1 Ar 1.18571 0.26683 1.47018 0 0 0 -0.8208 -1.5254 2.3502
54 1 Ar 3.21965 0.85480 0.90335 0 0 0 -0.3385 -1.4015 0.4440
55 1 Ar 2.48364 3.98395 1.05492 0 -1 0 -0.6541 -1.7494 0.0406
56 1 Ar 1.54242 4.15268 2.95313 0 0 0 -0.7810 1.6399 0.3495
57 1 Ar 1.41847 1.10474 3.34388 0 0 0 2.2714 1.6778 -0.5676
58 1 Ar 1.18946 3.15103 3.01590 0 0 0 0.7469 0.3573 1.6473
59 1 Ar 0.23780 0.96350 4.67127 0 0 0 -0.8500 0.1141 0.2847
60 1 Ar 4.59816 2.37043 3.30160 -1 0 0 -0.3964 1.3836 -0.2104
61 1 Ar 1.93622 1.71662 4.92772 0 0 -1 -0.2028 -2.2316 -0.7239
62 1 Ar 1.68033 3.35684 1.06737 0 0 0 0.0150 -0.7218 -0.0761
63 1 Ar 2.72252 3.09188 1.24244 0 0 0 2.8166 0.7373 -0.5411
64 1 Ar 1.69153 2.21813 0.98682 0 0 0 0.5463 0.5652 0.9723
65 1 Ar 2.06952 1.79633 3.93797 0 0 0 1.1984 2.2048 -0.0139
66 1 Ar 2.56298 3.32799 2.97843 0 0 0 -0.2009 -0.5321 3.1871
67 1 Ar 1.80355 4.69411 3.80140 0 0 0 2.3693 0.4921 -1.5435
68 1 Ar 0.40553 3.52395 2.42030 0 0 0 -0.8020 0.2052 0.7398
69 1 Ar 1.10979 2.26910 3.85261 0 0 0 2.1392 -0.1549 0.1136
70 1 Ar 1.45273 4.22040 5.00376 0 0 0 -0.4327 1.2168 0.2884
71 1 Ar 2.47059 1.56972 0.73739 0 0 1 0.1437 -0.7279 1.5937
72 1 Ar 0.71980 4.39815 3.63652 0 0 0 -1.8705 -0.9127 -1.6119
73 1 Ar 3.74371 0.06205 0.11678 0 0 0 -0.4476 1.4586 1.1127
74 1 Ar 4.40606 0.65359 3.33263 0 0 -1 1.0214 1.5314 -0.4421
75 1 Ar 0.13339 1.97437 0.56915 1 0 0 1.2462 -2.8831 1.5749
76 1 Ar 3.67299 2.86439 3.14837 0 0 -1 -0.0392 1.5910 0.6359
77 1 Ar 4.71122 0.39052 0.50805 0 0 0 -0.5283 -2.2450 -1.7802
78 1 Ar 4.23586 1.33032 0.69923 0 0 0 -0.5318 0.3706 0.5181
79 1 Ar 4.56236 4.87897 2.37176 0 -1 0 0.0091 0.7848 -0.7832
80 1 Ar 3.89778 2.57630 4.16236 0 0 0 -0.4477 -0.7032 -0.3745
81 1 Ar 2.69411 5.03029 3.52511 0 -1 0 -0.5247 -1.0456 1.1392
82 1 Ar 4.18852 1.81110 2.24913 0 0 0 -0.9215 -2.3197 -0.9893
83 1 Ar 4.45302 4.79046 3.53548 0 -1 0 3.2979 -1.9281 1.5740
84 1 Ar 3.41371 0.31747 4.14949 0 0 0 -0.2156 1.5501 -3.1931
85 1 Ar 1.90217 2.82988 3.56936 0 0 -1 -0.2184 -1.5838 -2.8532
86 1 Ar 4.32601 2.93878 0.68613 0 0 0 -0.5356 -0.0617 -0.9947
87 1 Ar 4.41679 3.07988 2.51915 0 0 0 0.5365 0.1426 -0.1308
88 1 Ar 3.90714 4.06937 4.29893 0 0 -1 0.5473 -2.6049 1.2553
89 1 Ar 2.44455 0.10638 0.44291 0 0 0 0.6247 -0.3671 0.7272
90 1 Ar 4.81142 1.42686 1.57142 0 0 0 0.5798 1.3710 0.2181
91 1 Ar 0.36319 1.71135 3.32978 1 0 0 -1.6283 0.9117 0.2724
92 1 Ar 1.36733 2.06186 2.81312 0 0 0 1.4785 -2.4992 -0.9066
93 1 Ar 2.96922 2.57374 3.73366 0 0 0 0.8567 -1.9168 -0.6732
94 1 Ar 3.60799 3.90902 3.20692 0 0 0 -0.9895 1.6313 0.8983
95 1 Ar 0.85100 2.39186 4.79783 1 0 0 -0.7454 -1.5570 0.2835
96 1 Ar 3.15360 3.40952 2.18346 0 0 0 -0.4074 -2.0796 0.2680
97 1 Ar 3.07023 3.46156 4.33637 0 0 -1 1.4727 -0.8328 -0.2163
98 1 Ar 4.84900 1.75799 4.15809 0 1 -1 -1.5373 2.3683 -0.8897
99 1 Ar 4.54360 4.08593 0.22233 0 0 0 1.6723 0.2658 0.1427
100 1 Ar 3.93449 0.97988 4.66675 0 1 -1 -1.3603 2.0990 0.0008
101 1 Ar 1.92292 2.91119 2.00300 0 0 0 -0.0100 2.5902 -1.6177
102 1 Ar 3.31167 4.10289 0.14950 0 0 0 -2.8736 1.6559 -0.5843
103 1 Ar 3.58036 4.90624 1.12268 0 0 0 0.1151 -0.5920 0.9255
104 1 Ar 2.21724 3.84822 3.77910 0 0 0 0.8349 0.0585 0.7803
105 1 Ar 4.66464 3.96762 3.00272 0 0 0 1.9904 -1.6710 -0.6524
106 1 Ar 1.71484 0.07605 2.78278 1 1 0 -0.1694 0.6090 -0.0046
107 1 Ar 3.75056 1.71591 3.52887 0 0 0 -2.6726 1.4449 0.4763
108 1 Ar 3.60046 4.89722 3.07754 0 0 0 -0.1496 -0.1130 -1.2613
ITEM: TIMESTEP
1160
ITEM: NUMBER OF ATOMS
108
ITEM: BOX BOUNDS pp pp pp
0.0000000000000000e+00 5.0387885741475218e+00
0.0000000000000000e+00 5.0387885741475218e+00
0.0000000000000000e+00 5.0387885741475218e+00
ITEM: ATOMS id type element x y z ix iy iz vx vy vz
1 1 Ar 0.66121 0.43300 4.17583 0 0 -1 -0.9874 1.3945 1.1380
2 1 Ar 0.38749 4.94351 0.87312 0 -1 0 0.7918 3.0997 -0.3326
3 1 Ar 0.76706 3.74383 0.76663 0 -1 0 -0.6966 -1.5119 -0.7420
4 1 Ar 0.99424 0.89325 1.10903 0 0 0 1.0113 -1.1340 -0.5834
5 1 Ar 4.00802 0.46953 1.86593 -1 0 0 0.2055 0.2019 -1.9879
6 1 Ar 3.07708 1.37628 1.84218 -1 0 0 -1.9907 1.6480 1.8992
7 1 Ar 1.75010 0.99561 2.03431 0 0 0 -2.2102 0.7084 -0.2021
8 1 Ar 0.01991 1.30096 2.46282 0 0 0 -0.1504 0.3292 -0.1197
9 1 Ar 4.81070 3.96205 4.40074 -1 -1 0 -1.4818 0.6557 -0.6862
10 1 Ar 2.50702 4.82124 4.32094 0 -1 0 0.0368 1.3296 -1.1800
11 1 Ar 0.96395 0.79339 0.05051 0 0 1 -1.2487 -3.7621 -0.6392
12 1 Ar 4.33544 0.12140 4.42229 -1 0 0 1.6090 1.0443 0.3021
13 1 Ar 4.26959 2.06290 0.09650 -1 0 0 -1.5995 0.7673 -0.0387
14 1 Ar 0.78197 2.42655 0.73469 0 0 0 0.2263 -0.6807 -0.7902
15 1 Ar 0.02810 2.57718 1.39996 0 0 0 1.4962 0.5818 0.9413
16 1 Ar 4.47899 4.63055 1.49482 -1 0 0 -0.7611 0.7301 0.6659
17 1 Ar 0.37790 2.40063 2.76467 0 0 0 0.5733 0.6834 0.4691
18 1 Ar 2.34707 2.12107 1.85383 0 0 0 1.9223 2.5846 -0.4011
19 1 Ar 0.99572 0.88226 2.72598 0 0 0 0.5531 1.9342 2.0220
20 1 Ar 0.39758 3.28395 3.52766 0 0 0 0.1002 0.6723 -0.4804
21 1 Ar 0.22534 0.37044 3.25614 0 0 0 1.2781 2.1660 1.0546
22 1 Ar 0.15889 2.48018 4.21102 0 0 0 -0.3362 -2.4318 -0.1280
23 1 Ar 0.83559 1.82452 1.82931 0 0 1 -3.2833 -0.4667 0.0089
24 1 Ar 4.29626 3.49416 3.65344 -1 0 0 -0.3978 0.1313 -0.8825
25 1 Ar 4.37194 3.13396 4.71685 -1 0 -1 0.9720 0.2156 -0.8771
26 1 Ar 2.32915 2.45198 4.75160 0 0 -1 -1.8782 1.2498 0.1405
27 1 Ar 1.31656 2.93228 4.98768 0 0 -1 -2.2750 -1.6122 -0.5382
28 1 Ar 0.65597 4.22045 1.67581 0 0 0 2.7865 1.8894 0.5480
29 1 Ar 4.87440 3.66579 1.26801 -1 0 0 -0.3923 -0.5478 -1.0127
30 1 Ar 4.99248 0.50465 1.57834 -1 1 0 -0.9205 0.4726 -0.0191
31 1 Ar 0.82800 4.81866 2.60133 0 0 0 0.6587 1.1529 1.8512
32 1 Ar 3.71075 3.75624 1.27093 -1 0 0 -0.6779 0.9030 -0.2741
33 1 Ar 3.04538 2.24087 2.71087 -1 0 0 1.5520 0.9408 1.1830
34 1 Ar 1.21295 2.87008 1.74892 0 0 0 3.0820 -0.0368 -1.9043
35 1 Ar 1.33419 3.64761 4.17035 0 0 0 0.1185 1.6046 0.3155
36 1 Ar 0.33494 3.34527 5.02840 0 0 0 0.6767 -1.3795 0.2164
37 1 Ar 3.09843 1.90600 4.99153 0 0 -1 -0.7914 -1.0269 1.3371
38 1 Ar 2.88470 0.96965 4.91395 0 0 -1 -0.4480 1.8553 1.3126
39 1 Ar 1.47451 4.48623 0.90923 0 -1 0 0.7273 0.1900 0.3269
40 1 Ar 2.41086 0.30436 1.49832 0 0 0 -1.3404 0.2015 -1.4635
41 1 Ar 2.60568 4.52212 2.14308 0 -1 0 0.5865 -1.1140 -0.6909
42 1 Ar 3.44874 1.07747 2.97254 0 0 0 -0.2126 1.5085 -2.0140
43 1 Ar 3.64744 4.17623 2.30111 0 -1 0 1.4124 -0.8149 0.7918
44 1 Ar 2.81760 0.48381 2.48624 0 0 0 -1.0003 -2.0550 -0.2814
45 1 Ar 2.93737 1.06794 3.88870 0 0 0 0.4003 -0.9144 -0.6036
46 1 Ar 2.52439 1.32167 2.96736 0 0 0 -1.4858 -0.2638 1.9100
47 1 Ar 2.20451 3.75083 0.05250 0 -1 1 -0.5781 0.1491 2.4224
48 1 Ar 0.32147 4.76064 4.90661 0 -1 0 -1.1372 -0.1645 0.5473
49 1 Ar 1.84010 0.48682 4.46071 0 0 -1 0.5399 -0.9195 0.6619
50 1 Ar 3.38578 2.94203 0.09998 0 0 0 0.2168 0.7107 -0.6789
51 1 Ar 3.97415 2.46188 1.61136 0 0 0 0.1035 -2.7792 -0.2618
52 1 Ar 3.36491 2.07026 0.88275 0 0 0 0.9438 -0.0406 1.8454
53 1 Ar 1.16627 0.12510 1.64559 0 0 0 0.9465 -1.2407 1.2312
54 1 Ar 3.23075 0.78566 0.96577 0 0 0 -0.1763 -1.0196 -0.6412
55 1 Ar 2.53438 4.06476 1.21039 0 -1 0 0.7989 -0.6926 1.8998
56 1 Ar 1.80228 4.10064 2.95946 0 0 0 4.3740 0.0325 -1.0587
57 1 Ar 1.58581 0.88358 3.54892 0 0 0 -1.5981 -2.4485 1.5728
58 1 Ar 1.25836 3.09745 2.77476 0 0 0 0.0320 -0.8224 -2.3512
59 1 Ar 4.98643 0.99941 4.61716 -1 0 0 -0.6098 -0.1078 -2.2353
60 1 Ar 4.63358 2.55020 3.19605 -1 0 0 1.6766 1.9846 0.9729
61 1 Ar 1.93319 1.41866 0.00106 0 0 0 2.8729 -0.1751 2.4345
62 1 Ar 1.72167 3.39583 0.89298 0 0 0 1.0323 1.1305 0.2465
63 1 Ar 2.90185 2.79596 1.30898 0 0 0 -1.4783 -1.2310 -0.4902
64 1 Ar 1.97991 2.33698 0.93127 0 0 0 1.4590 0.2959 -1.6416
65 1 Ar 1.98438 1.68366 4.08155 0 0 0 -1.0559 0.7223 1.7773
66 1 Ar 2.71783 3.44574 3.11504 0 0 0 0.4875 0.6286 -1.9395
67 1 Ar 1.39223 4.79725 3.92298 0 0 0 -2.1636 -0.8010 0.0905
68 1 Ar 0.43811 3.50936 2.33215 0 0 0 -0.2972 -2.0617 1.8284
69 1 Ar 1.12345 2.15595 3.87845 0 0 0 0.1308 0.3860 0.6307
70 1 Ar 1.28334 4.44229 4.80789 0 0 0 -0.2058 0.5039 -1.4366
71 1 Ar 2.28093 1.26280 0.93792 0 0 1 -1.5329 -1.6629 1.1857
72 1 Ar 0.85306 4.16623 3.35168 0 0 0 0.4601 -1.2988 -0.9862
73 1 Ar 3.42980 0.09168 0.13219 0 0 0 -0.1231 -0.8259 -1.2938
74 1 Ar 4.48824 1.19243 3.28326 0 0 -1 0.0831 0.1447 -2.5076
75 1 Ar 0.11586 1.51512 0.39926 1 0 0 0.3362 -2.1042 0.5484
76 1 Ar 3.73734 2.92028 3.01503 0 0 -1 1.0749 2.2574 -0.7998
77 1 Ar 4.46148 0.42845 0.32816 0 0 0 0.5300 0.2488 3.2578
78 1 Ar 4.05400 1.23502 0.73812 0 0 0 -0.5342 -0.9311 0.8785
79 1 Ar 4.75876 4.90933 2.59053 0 -1 0 0.7163 -0.4351 -0.5065
80 1 Ar 3.66341 2.27796 4.30711 0 0 0 0.5211 -0.7022 -0.4676
81 1 Ar 2.74315 4.88348 3.23679 0 -1 0 0.1431 -1.0085 -1.9687
82 1 Ar 4.16039 1.64176 2.40683 0 0 0 -0.7128 0.0768 0.0559
83 1 Ar 4.62096 4.68883 3.58523 0 -1 0 -2.1726 1.2073 -2.0669
84 1 Ar 3.75840 0.49426 3.72271 0 0 0 2.0490 -0.2956 0.1677
85 1 Ar 2.04225 2.70490 3.24468 0 0 -1 0.9243 0.6440 -0.0234
86 1 Ar 4.33109 3.09637 0.70969 0 0 0 0.5281 0.1448 -0.4856
87 1 Ar 4.57833 3.03628 2.18757 0 0 0 1.3981 0.3034 -1.1185
88 1 Ar 3.83453 4.25969 4.52823 0 0 -1 -2.3963 0.4279 1.6590
89 1 Ar 2.26927 4.79239 0.29497 0 -1 0 -1.8299 0.3462 -2.1447
90 1 Ar 4.90745 1.53334 1.48311 0 0 0 0.0546 0.2381 -0.2048
91 1 Ar 0.32774 1.64966 3.49894 1 0 0 -0.5244 -2.1482 2.0807
92 1 Ar 1.64438 1.95554 2.62307 0 0 0 -0.8478 -0.9321 -1.4382
93 1 Ar 2.87919 2.42298 3.63808 0 0 0 -0.6755 -0.0474 -0.1884
94 1 Ar 3.41393 4.14655 3.49181 0 0 0 -0.1215 1.9545 1.8571
95 1 Ar 0.99890 1.79166 5.00983 1 0 0 0.3920 1.4099 -0.5217
96 1 Ar 3.22907 3.28250 2.19141 0 0 0 1.1267 -0.0728 -0.5172
97 1 Ar 3.22151 3.22156 4.23903 0 0 -1 -0.2158 1.2300 -2.6771
98 1 Ar 4.44035 1.80923 4.03517 0 1 -1 0.7198 2.3614 0.8706
99 1 Ar 4.61796 4.15857 0.34969 0 0 0 -1.7466 -0.1265 2.5228
100 1 Ar 4.01092 1.03233 4.69762 0 1 -1 -1.7249 -1.6655 0.6391
101 1 Ar 2.22031 3.28462 2.00193 0 0 0 1.0457 1.6100 0.5860
102 1 Ar 3.23527 4.15085 0.30228 0 0 0 0.8270 -2.9954 1.3626
103 1 Ar 3.33098 4.70483 1.40548 0 0 0 -2.1081 -0.4662 1.1062
104 1 Ar 2.28668 3.75391 3.89524 0 0 0 -0.3574 0.6441 0.0162
105 1 Ar 4.63056 3.93326 2.69919 0 0 0 -1.7497 -0.5143 -1.6540
106 1 Ar 1.89548 0.18296 2.89427 1 1 0 2.0374 -1.6229 -1.2313
107 1 Ar 3.79671 2.02273 3.24266 0 0 0 0.1170 -0.0087 0.4186
108 1 Ar 3.76829 0.08756 2.77676 0 1 0 1.7641 -0.5189 -1.3985
ITEM: TIMESTEP
1200
ITEM: NUMBER OF ATOMS
108
ITEM: BOX BOUNDS pp pp pp
0.0000000000000000e+00 5.0387885741475218e+00
0.0000000000000000e+00 5.0387885741475218e+00
0.0000000000000000e+00 5.0387885741475218e+00
ITEM: ATOMS id type element x y z ix iy iz vx vy vz
1 1 Ar 0.58064 0.32449 4.22293 0 0 -1 -1.0343 -1.6825 -0.4251
2 1 Ar 0.60895 4.98692 1.20058 0 -1 0 1.3891 -2.3728 3.1929
3 1 Ar 0.78519 3.60032 0.79109 0 -1 0 -0.2993 -0.4891 -0.0555
4 1 Ar 1.20820 1.08118 0.99166 0 0 0 0.9406 1.6167 -0.7768
5 1 Ar 3.78846 0.75745 1.60691 -1 0 0 -0.5490 1.9031 0.6179
6 1 Ar 2.79460 1.50253 2.00346 -1 0 0 -0.9529 0.9104 0.8104
7 1 Ar 1.42909 1.14676 2.06056 0 0 0 -1.1586 -0.1861 1.3450
8 1 Ar 0.12251 1.25535 2.45491 0 0 0 0.4112 1.2629 0.8241
9 1 Ar 4.86273 4.28885 4.32084 -1 -1 0 1.8578 0.3313 0.0030
10 1 Ar 2.81767 4.94304 4.09933 0 -1 0 1.3235 1.7812 0.5506
11 1 Ar 1.01120 0.39713 0.18464 0 0 1 -0.2849 0.1190 2.3662
12 1 Ar 4.35650 0.08165 4.54670 -1 0 0 -2.8678 -0.6890 1.1814
13 1 Ar 4.07072 2.02519 0.20265 -1 0 0 -0.6113 -1.4005 0.6965
14 1 Ar 0.92097 2.29216 0.68152 0 0 0 0.4353 -1.5088 -2.3098
15 1 Ar 0.26647 2.75601 1.54027 0 0 0 0.8295 1.1273 0.7348
16 1 Ar 4.33051 4.65461 1.62449 -1 0 0 0.1832 1.3623 2.1469
17 1 Ar 0.60607 2.31026 2.75268 0 0 0 -1.6550 -0.2364 1.3368
18 1 Ar 2.36218 2.48698 2.03922 0 0 0 3.0773 2.0239 0.4549
19 1 Ar 1.05512 1.27425 2.99052 0 0 0 -1.3616 1.1882 1.3301
20 1 Ar 0.44995 3.19985 3.67069 0 0 0 -0.0323 -0.8794 0.7316
21 1 Ar 0.07857 0.50297 3.20753 0 0 0 -1.8829 -1.0919 0.8781
22 1 Ar 0.33842 2.36913 4.35157 0 0 0 -0.1417 -1.5091 0.0053
23 1 Ar 0.81072 1.79830 1.66984 0 0 1 -0.1112 -1.3335 -1.7194
24 1 Ar 4.30455 3.66419 3.69002 -1 0 0 0.3983 0.4006 -0.0690
25 1 Ar 4.37243 3.01864 4.41254 -1 0 -1 0.9916 0.0463 -0.4768
26 1 Ar 2.24373 2.82771 4.62986 0 0 -1 1.6930 1.9224 -1.9030
27 1 Ar 1.10997 2.89853 4.81872 0 0 -1 -0.7497 0.5772 -0.0919
28 1 Ar 0.85126 4.11284 1.81324 0 0 0 0.5388 -1.2805 1.0080
29 1 Ar 4.94713 3.71743 1.56074 -1 0 0 0.1105 1.0931 1.8102
30 1 Ar 5.03492 0.71800 1.64332 -1 1 0 -0.0013 1.4032 -1.2336
31 1 Ar 0.90339 0.06492 2.80850 0 1 0 1.7474 0.3718 -0.2303
32 1 Ar 3.89573 3.77946 1.40439 -1 0 0 0.9083 -1.7515 0.6540
33 1 Ar 3.22242 2.41250 2.60713 -1 0 0 1.1316 0.5141 0.7169
34 1 Ar 1.39677 2.48388 1.47228 0 0 0 -0.4741 -1.1893 -1.1168
35 1 Ar 1.12637 3.68519 4.18489 0 0 0 -0.3364 0.9689 0.1898
36 1 Ar 0.10866 3.33559 0.02045 0 0 1 -1.5016 2.6183 1.9338
37 1 Ar 2.85189 2.03237 0.02897 0 0 0 -1.8871 -0.3766 -0.6546
38 1 Ar 2.62959 0.68566 5.01589 0 0 -1 0.3294 0.2396 -0.5268
39 1 Ar 1.51648 4.46119 0.96151 0 -1 0 -1.7830 -0.9949 0.2954
40 1 Ar 2.33351 4.97457 1.24861 0 -1 0 2.4179 -1.2008 -1.2035
41 1 Ar 2.57195 4.46359 2.14550 0 -1 0 -2.8135 1.7731 1.4163
42 1 Ar 3.27503 0.97155 2.92038 0 0 0 -2.0583 -1.3828 1.8614
43 1 Ar 3.61697 4.15311 2.32395 0 -1 0 1.2428 -0.6407 0.8582
44 1 Ar 2.86016 0.44594 2.02900 0 0 0 0.1305 0.6439 -2.0168
45 1 Ar 2.93712 0.94970 3.93125 0 0 0 -0.8262 0.0213 0.6377
46 1 Ar 1.99687 1.43271 3.19893 0 0 0 -0.2398 2.0060 0.0521
47 1 Ar 2.22594 3.81941 0.00074 0 -1 1 -0.4578 -0.2943 -1.4123
48 1 Ar 0.27755 4.61109 0.20480 0 -1 1 -0.8093 -1.1441 3.5952
49 1 Ar 1.72442 0.79954 4.67030 0 0 -1 -2.4120 2.2739 -1.8845
50 1 Ar 3.39940 2.91711 0.12480 0 0 0 0.9560 -0.0117 -0.2330
51 1 Ar 4.06905 2.45961 1.30482 0 0 0 -1.3817 -0.1095 -2.1463
52 1 Ar 3.17107 1.83886 1.14471 0 0 0 -2.4070 -0.7162 1.2951
53 1 Ar 1.32601 0.08238 1.82127 0 0 0 -1.6854 -0.9601 -0.7597
54 1 Ar 3.00820 0.61909 0.88153 0 0 0 -1.2670 1.0555 -0.4397
55 1 Ar 2.68092 4.06155 1.27626 0 -1 0 0.3061 0.9149 -0.8856
56 1 Ar 1.91709 3.98585 3.10654 0 0 0 -0.1558 -1.0922 1.6953
57 1 Ar 1.54061 0.74318 3.71492 0 0 0 0.2817 -0.7618 0.6355
58 1 Ar 1.41795 3.06268 2.41687 0 0 0 -1.4921 0.1958 -0.7447
59 1 Ar 4.88381 0.97162 4.59258 -1 0 0 0.3406 0.6262 1.8557
60 1 Ar 4.51121 2.57432 3.48041 -1 0 0 -1.1095 -0.2952 -0.3224
61 1 Ar 1.99762 1.48386 0.24802 0 0 0 -0.9714 -0.0323 1.2912
62 1 Ar 1.78602 3.47093 0.97766 0 0 0 0.3156 -0.7174 -0.0537
63 1 Ar 2.80218 3.00981 0.84371 0 0 0 -0.6060 -0.4940 -1.2829
64 1 Ar 2.06383 2.47812 0.64486 0 0 0 -1.3319 1.3190 -0.0474
65 1 Ar 2.04923 1.62241 4.24302 0 0 0 0.0801 -1.1248 0.6902
66 1 Ar 2.92081 3.51550 2.78702 0 0 0 -0.3600 0.7060 -0.8876
67 1 Ar 1.30763 4.64917 3.65012 0 0 0 0.7805 -1.3913 -0.1241
68 1 Ar 0.42290 3.31264 2.44099 0 0 0 -0.1230 -2.1205 -1.3778
69 1 Ar 1.32041 2.40394 3.71287 0 0 0 0.8567 0.6660 -1.2947
70 1 Ar 1.26910 4.40813 5.03825 0 0 0 1.4306 -2.3200 -0.0821
71 1 Ar 2.22537 1.34856 1.25111 0 0 1 0.9558 1.6430 -0.6363
72 1 Ar 1.00701 3.94767 2.93544 0 0 0 -0.3570 -0.3324 -2.5584
73 1 Ar 3.49901 5.03076 0.09162 0 -1 0 0.9450 -0.4502 1.0617
74 1 Ar 4.33018 1.05040 3.08706 0 0 -1 -2.0050 0.0686 0.5578
75 1 Ar 0.21203 1.06641 0.53030 1 0 0 0.6698 -2.4968 0.5481
76 1 Ar 3.91200 3.22567 2.91115 0 0 -1 -0.7268 -0.1123 1.7812
77 1 Ar 4.55326 0.18648 0.86374 0 0 0 -0.7064 -0.9433 0.8074
78 1 Ar 4.05812 1.12567 0.67427 0 0 0 -0.3769 -1.5692 -2.4282
79 1 Ar 0.04905 4.89198 2.27628 1 -1 0 1.3560 -1.1634 -0.8067
80 1 Ar 3.51654 2.40690 4.27080 0 0 0 -2.0913 -1.0708 -2.2226
81 1 Ar 2.91320 4.78543 2.98637 0 -1 0 1.2610 1.0035 -1.5481
82 1 Ar 4.11769 1.56711 2.27758 0 0 0 -0.2505 -0.0359 -1.4830
83 1 Ar 4.55185 4.70349 3.27598 0 -1 0 2.6672 2.1458 -0.5027
84 1 Ar 3.83242 0.46444 3.80188 0 0 0 -1.1600 -0.3819 0.7016
85 1 Ar 2.06369 2.81735 3.28026 0 0 -1 0.9840 1.8479 -0.7293
86 1 Ar 4.35464 3.03822 0.63054 0 0 0 1.4746 2.6509 -1.4053
87 1 Ar 4.52346 3.00421 2.15274 0 0 0 1.4190 -0.5611 -1.2550
88 1 Ar 3.68090 3.99662 4.72499 0 0 -1 1.6745 -3.0175 -1.0765
89 1 Ar 2.32966 4.81860 0.20580 0 -1 0 1.6934 -1.2100 1.1005
90 1 Ar 4.80607 1.72719 1.49192 0 0 0 1.2622 1.0914 1.0883
91 1 Ar 0.54607 1.51031 3.83454 1 0 0 1.7468 0.8599 1.4062
92 1 Ar 1.58783 2.07739 2.45682 0 0 0 1.0118 1.6454 0.5373
93 1 Ar 2.69921 2.19459 3.81705 0 0 0 -0.1434 -1.6517 0.1602
94 1 Ar 3.55909 4.46665 3.68979 0 0 0 -0.1128 1.4892 0.3758
95 1 Ar 1.08570 1.62544 4.66013 1 0 0 0.2465 -2.3458 -1.4073
96 1 Ar 3.35229 2.96226 1.80117 0 0 0 -0.2578 -2.0126 -1.5835
97 1 Ar 3.25683 3.32408 3.73406 0 0 -1 0.4650 -1.1666 -0.9841
98 1 Ar 4.43232 1.92573 4.22760 0 1 -1 -0.0080 -0.0965 2.3663
99 1 Ar 4.18588 4.26666 0.56365 0 0 0 -1.5302 1.2459 -1.3038
100 1 Ar 3.72145 1.08038 4.74736 0 1 -1 -0.2377 1.1260 -0.3683
101 1 Ar 2.25719 3.51969 2.05208 0 0 0 0.8521 1.2789 -1.9052
102 1 Ar 3.17891 3.86793 0.46602 0 0 0 0.2512 1.8923 0.2938
103 1 Ar 3.36422 4.79218 1.44405 0 0 0 2.1147 -1.0704 -0.5949
104 1 Ar 2.31119 3.96899 4.03911 0 0 0 0.0836 0.6165 1.1633
105 1 Ar 4.67576 3.94266 2.73833 0 0 0 1.4783 0.4756 -0.9654
106 1 Ar 2.00927 0.04649 2.77680 1 1 0 2.0769 0.0626 1.6269
107 1 Ar 3.65403 1.91744 3.30529 0 0 0 -2.0658 -0.7457 -0.8795
108 1 Ar 3.82587 0.21594 2.53160 0 1 0 0.0882 1.0889 -1.8426
ITEM: TIMESTEP
1240
ITEM: NUMBER OF ATOMS
108
ITEM: BOX BOUNDS pp pp pp
0.0000000000000000e+00 5.0387885741475218e+00
0.0000000000000000e+00 5.0387885741475218e+00
0.0000000000000000e+00 5.0387885741475218e+00
ITEM: ATOMS id type element x y z ix iy iz vx vy vz
1 1 Ar 0.59539 0.25897 4.14077 0 0 -1 1.4143 2.6301 -0.2060
2 1 Ar 0.38417 4.90805 1.46247 0 -1 0 1.0934 2.7334 0.6309
3 1 Ar 0.75148 3.57884 0.82508 0 -1 0 -0.3452 0.8604 -1.6018
4 1 Ar 1.19459 1.01920 0.86700 0 0 0 -0.7371 -1.9947 -0.1256
5 1 Ar 3.82955 1.02028 1.44107 -1 0 0 1.5829 1.2701 -0.9531
6 1 Ar 2.73187 1.69314 2.54391 -1 0 0 -0.2059 1.4927 0.6372
7 1 Ar 1.56428 0.97582 2.17541 0 0 0 1.6065 0.4555 0.4326
8 1 Ar 4.92125 1.49675 2.44652 -1 0 0 -2.1832 1.3044 -0.0197
9 1 Ar 0.11564 4.31050 4.10437 0 -1 0 -0.0574 -0.5412 -2.5485
10 1 Ar 2.81750 0.03159 4.34000 0 0 0 -0.0463 0.6676 1.1104
11 1 Ar 0.96531 0.01668 0.64680 0 0 1 -1.7207 -0.0027 0.8164
12 1 Ar 4.28460 4.97969 4.67418 -1 -1 0 0.4434 0.2234 -0.5854
13 1 Ar 3.78943 1.85093 0.14305 -1 0 0 -2.1352 -0.7919 -0.5402
14 1 Ar 0.63868 2.09898 0.56641 0 0 0 -1.7634 -2.5586 -1.3288
15 1 Ar 0.54986 2.68822 1.32317 0 0 0 -0.1460 1.3029 2.7761
16 1 Ar 4.52630 4.72179 1.93048 -1 0 0 1.3221 0.6362 0.3396
17 1 Ar 0.34392 2.18889 3.15305 0 0 0 -0.5012 -1.6999 1.6534
18 1 Ar 2.40405 2.53812 2.01869 0 0 0 0.8909 -0.8116 -0.2564
19 1 Ar 1.03188 1.45337 2.98579 0 0 0 -1.2746 1.4824 0.0092
20 1 Ar 0.29657 3.03440 3.66018 0 0 0 0.6103 -0.8923 0.6710
21 1 Ar 0.31250 0.77254 3.24083 0 0 0 0.5213 -0.9419 -1.6453
22 1 Ar 0.44156 2.33290 4.59870 0 0 0 3.0120 -0.6684 2.0502
23 1 Ar 0.71336 1.59813 1.71191 0 0 1 0.3619 -0.1332 1.7496
24 1 Ar 4.67079 3.64285 3.55812 -1 0 0 1.0926 -1.4139 -0.3565
25 1 Ar 4.56615 2.84703 4.55009 -1 0 -1 -0.4402 0.1487 0.6641
26 1 Ar 2.40940 2.95841 4.29858 0 0 -1 -2.0234 0.2296 0.9878
27 1 Ar 1.10018 3.05769 4.86349 0 0 -1 1.4458 0.7826 -0.2446
28 1 Ar 1.05508 3.83635 1.79381 0 0 0 0.2747 -0.7116 0.5462
29 1 Ar 0.00469 3.82663 1.46468 0 0 0 1.3769 -2.1799 -1.8257
30 1 Ar 4.94635 0.77270 1.77995 -1 1 0 -1.1279 -0.8710 2.0659
31 1 Ar 1.17586 0.26143 2.92117 0 1 0 2.4278 2.0659 0.8869
32 1 Ar 4.03849 3.77781 1.53651 -1 0 0 -0.2188 2.1500 1.5414
33 1 Ar 3.27781 2.46947 2.73846 -1 0 0 0.0966 1.3835 1.4411
34 1 Ar 1.53049 2.53116 1.52095 0 0 0 -0.3727 -0.7303 -0.7243
35 1 Ar 1.05730 3.65080 4.01516 0 0 0 -0.6758 -1.0786 -1.7729
36 1 Ar 0.34017 3.54163 4.87137 0 0 0 -0.2757 -1.4794 -1.2854
37 1 Ar 2.79092 2.03159 4.89215 0 0 -1 0.8555 0.5250 -1.0680
38 1 Ar 2.64333 0.90431 4.98950 0 0 -1 -0.5510 0.9424 -0.3641
39 1 Ar 1.53041 4.37681 1.05930 0 -1 0 3.5545 -1.7727 1.4011
40 1 Ar 2.27489 0.07010 1.15066 0 0 0 -0.8705 0.8887 -0.9233
41 1 Ar 2.36258 4.51204 2.23291 0 -1 0 2.8266 0.8991 0.9193
42 1 Ar 2.89789 0.85877 3.00856 0 0 0 1.7984 0.9135 -0.2583
43 1 Ar 3.85090 4.23824 2.48447 0 -1 0 0.8047 1.7979 -0.1129
44 1 Ar 2.82315 0.64915 1.99918 0 0 0 -0.2422 1.2168 0.8639
45 1 Ar 2.68639 1.28874 3.90872 0 0 0 -1.6781 0.4754 0.2422
46 1 Ar 2.00350 1.32472 3.15063 0 0 0 -0.2677 -2.8972 0.7959
47 1 Ar 2.27487 3.49569 0.12556 0 -1 1 0.3197 -0.8008 -1.5484
48 1 Ar 0.19577 4.44591 0.51980 0 -1 1 1.9883 -0.4353 -0.2524
49 1 Ar 1.57071 0.21780 4.75965 0 0 -1 0.2569 -3.6303 0.3344
50 1 Ar 3.55349 2.90539 5.02964 0 0 -1 -1.4632 -0.3277 0.7511
51 1 Ar 4.00454 2.43016 1.05143 0 0 0 0.0646 1.7149 -2.0916
52 1 Ar 3.07451 1.97324 1.14361 0 0 0 -1.0451 1.7367 0.2099
53 1 Ar 1.44066 0.05267 1.79019 0 0 0 -1.9710 -0.5994 -1.9737
54 1 Ar 2.94730 1.06239 0.86652 0 0 0 -1.4141 2.3857 0.4684
55 1 Ar 2.75375 4.05306 1.12814 0 -1 0 0.1858 0.4609 -1.0071
56 1 Ar 1.97712 4.07674 3.02646 0 0 0 -0.5758 0.9541 -1.0573
57 1 Ar 1.31817 0.80132 3.82652 0 0 0 -1.0716 3.2649 3.6473
58 1 Ar 1.26711 3.15364 2.51725 0 0 0 -1.3911 -0.4717 3.5404
59 1 Ar 4.91881 0.96131 4.74679 -1 0 0 0.0108 -1.3872 -0.7246
60 1 Ar 4.41991 2.39905 3.40266 -1 0 0 -1.0412 -1.1989 0.1046
61 1 Ar 1.89874 1.44425 0.27790 0 0 0 0.2418 -0.6684 1.2415
62 1 Ar 1.72144 3.37949 1.02616 0 0 0 -1.3407 -0.2795 0.6190
63 1 Ar 2.81241 2.97653 0.74732 0 0 0 1.2322 -2.0839 -0.1849
64 1 Ar 1.75296 2.54625 0.28160 0 0 0 0.8360 -0.1887 -1.1300
65 1 Ar 1.84353 1.67646 4.17002 0 0 0 -2.1248 2.0535 -2.6983
66 1 Ar 2.96874 3.73146 2.56975 0 0 0 0.8302 0.9882 -1.4003
67 1 Ar 1.49319 4.69920 3.71764 0 0 0 0.9260 1.1824 1.0953
68 1 Ar 0.27078 3.00555 2.42478 0 0 0 -1.3768 -1.4577 -0.2821
69 1 Ar 1.29778 2.34815 3.58874 0 0 0 0.0337 -0.4690 -0.3869
70 1 Ar 1.31887 4.26288 0.03510 0 0 1 -0.5958 -0.2282 -0.0334
71 1 Ar 2.10063 1.46463 1.54304 0 0 1 -0.2623 0.8509 2.2688
72 1 Ar 0.78365 4.03005 3.10396 0 0 0 0.0868 -1.1788 3.9766
73 1 Ar 3.27976 0.18771 0.43920 0 0 0 -1.1813 1.0864 0.1031
74 1 Ar 4.28685 0.99003 3.08162 0 0 -1 2.2562 0.0711 0.6001
75 1 Ar 0.22533 0.86351 0.65802 1 0 0 0.0811 -0.2885 1.1158
76 1 Ar 4.01872 3.28067 2.87089 0 0 -1 1.2461 -0.5379 0.0366
77 1 Ar 4.53456 0.09948 0.98572 0 0 0 -0.4701 0.2741 1.5329
78 1 Ar 3.99542 0.86979 0.35995 0 0 0 0.1777 0.0480 -2.2979
79 1 Ar 0.40889 4.71401 2.45620 1 -1 0 -1.0348 -0.3961 0.5754
80 1 Ar 3.60401 2.30889 4.21074 0 0 0 0.3241 -0.0168 -0.2165
81 1 Ar 3.29180 4.85468 2.98038 0 -1 0 0.2278 -0.4895 0.7751
82 1 Ar 3.89026 1.87944 2.27276 0 0 0 -1.7197 0.4983 1.1345
83 1 Ar 4.58620 4.81403 3.27526 0 -1 0 0.2322 2.1174 -0.7756
84 1 Ar 3.59791 0.45930 3.80046 0 0 0 -0.7603 -0.1333 -0.5741
85 1 Ar 2.30187 2.92823 2.94306 0 0 -1 -0.8454 0.9273 -2.9889
86 1 Ar 4.32988 3.33221 0.51082 0 0 0 1.1393 -1.2519 -0.5956
87 1 Ar 4.27143 2.73182 2.00284 0 0 0 -0.4779 0.3366 0.4503
88 1 Ar 3.97142 3.66997 4.43052 0 0 -1 1.3679 -0.4353 0.0295
89 1 Ar 2.35956 4.58718 0.12005 0 -1 0 -2.1998 -0.8208 -1.0337
90 1 Ar 4.85941 1.99220 1.56015 0 0 0 1.8303 -0.1905 0.1779
91 1 Ar 0.23456 1.60119 3.95735 1 0 0 -2.2170 1.4075 -0.6229
92 1 Ar 1.53997 2.17937 2.52553 0 0 0 -1.3471 -0.8873 0.7782
93 1 Ar 2.75889 2.29062 3.64824 0 0 0 0.9824 -0.2231 0.5790
94 1 Ar 3.65930 4.40124 3.85208 0 0 0 -0.8137 0.0322 0.7577
95 1 Ar 0.97615 1.36560 4.58880 1 0 0 -0.7176 -3.0939 0.0626
96 1 Ar 3.31025 2.85734 1.73359 0 0 0 -1.8820 0.0568 1.5078
97 1 Ar 3.29609 3.29625 3.68914 0 0 -1 2.1056 1.3265 -2.1688
98 1 Ar 4.48836 1.81335 4.33067 0 1 -1 0.1184 -0.1479 -1.0928
99 1 Ar 4.17617 4.31258 0.34291 0 0 0 -1.1888 0.4996 -0.8000
100 1 Ar 3.55107 1.25963 4.44652 0 1 -1 -0.8798 0.3022 -1.2738
101 1 Ar 2.12965 3.64470 1.91500 0 0 0 0.1205 -0.4343 -0.6128
102 1 Ar 3.29138 3.93459 0.08529 0 0 0 -0.3575 -1.4209 -2.7352
103 1 Ar 3.59279 4.67303 1.24898 0 0 0 1.5787 -0.6269 0.4126
104 1 Ar 2.51661 4.15129 4.16233 0 0 0 0.9433 -0.3827 0.4602
105 1 Ar 4.81483 3.94119 2.63339 0 0 0 0.5942 0.2841 -0.5083
106 1 Ar 2.24982 0.08785 3.02825 1 1 0 -0.3264 -3.0057 0.4457
107 1 Ar 3.51193 1.59400 3.42519 0 0 0 2.2582 -1.4591 -1.3567
108 1 Ar 3.92480 0.49934 2.31419 0 1 0 -0.0575 1.4803 -1.8530
ITEM: TIMESTEP
1280
ITEM: NUMBER OF ATOMS
108
ITEM: BOX BOUNDS pp pp pp
0.0000000000000000e+00 5.0387885741475218e+00
0.0000000000000000e+00 5.0387885741475218e+00
0.0000000000000000e+00 5.0387885741475218e+00
ITEM: ATOMS id type element x y z ix iy iz vx vy vz
1 1 Ar 0.66486 0.27509 4.15208 0 0 -1 1.9017 -0.3247 -0.2005
2 1 Ar 0.41620 0.15873 1.43297 0 0 0 1.2959 -0.3441 0.2167
3 1 Ar 0.62773 3.24263 0.59971 0 -1 0 -2.1377 -2.8772 0.5946
4 1 Ar 1.25054 0.96518 1.27600 0 0 0 -0.5965 -0.2107 2.5102
5 1 Ar 4.14867 1.40464 1.07085 -1 0 0 0.9512 1.4022 -2.0033
6 1 Ar 2.66156 1.83289 2.65134 -1 0 0 -0.3254 1.7013 -1.1681
7 1 Ar 1.70080 0.86141 2.12924 0 0 0 0.1144 -2.1403 0.2389
8 1 Ar 4.51294 1.79872 2.42686 -1 0 0 -1.9505 2.4247 0.1376
9 1 Ar 0.14817 4.51987 3.98740 0 -1 0 -1.5966 0.6650 0.7648
10 1 Ar 2.82713 0.03729 4.39523 0 0 0 -0.8333 -0.0812 -0.3253
11 1 Ar 0.96546 4.95940 0.57631 0 -1 1 -0.7685 -1.4770 1.3638
12 1 Ar 4.35516 4.97427 4.36050 -1 -1 0 1.5398 -2.0349 -0.1931
13 1 Ar 3.52727 1.75128 0.32442 -1 0 0 -1.8546 -1.3653 0.3794
14 1 Ar 0.45947 1.81109 0.76272 0 0 0 2.5793 1.9158 -0.4155
15 1 Ar 0.70685 2.86051 1.62604 0 0 0 1.4092 -0.4255 0.2253
16 1 Ar 4.60590 4.74047 1.94088 -1 0 0 -0.5619 1.0892 -1.2866
17 1 Ar 0.32613 2.10681 3.20935 0 0 0 0.4166 -1.5192 2.0679
18 1 Ar 2.33505 2.62329 1.85268 0 0 0 0.4566 -0.6288 -1.1195
19 1 Ar 1.03843 1.35874 3.03537 0 0 0 2.3234 -0.0168 0.2611
20 1 Ar 0.26489 2.85183 4.03111 0 0 0 -0.8620 -0.2119 0.3010
21 1 Ar 0.32004 0.61078 3.11763 0 0 0 -1.1471 0.6322 0.8831
22 1 Ar 0.91904 2.18712 4.66661 0 0 0 -0.6459 -2.5447 0.6475
23 1 Ar 0.82549 1.52255 2.03274 0 0 1 -2.1518 0.0179 0.8822
24 1 Ar 4.65376 3.55568 3.60325 -1 0 0 0.8902 -0.1547 -0.1028
25 1 Ar 4.58484 2.55845 4.61910 -1 0 -1 -0.5748 -0.4092 1.0274
26 1 Ar 2.08378 3.01943 4.11004 0 0 -1 -0.1334 2.6280 -1.5687
27 1 Ar 1.40443 2.90810 5.01717 0 0 -1 -0.2729 -1.5348 0.1307
28 1 Ar 1.03807 3.79422 1.97911 0 0 0 0.0980 0.9971 0.7329
29 1 Ar 4.98102 3.74024 1.32578 -1 0 0 0.0451 1.1723 -0.4101
30 1 Ar 4.79878 0.86524 2.16219 -1 1 0 0.2680 0.2653 1.5101
31 1 Ar 1.32433 0.25252 3.11322 0 1 0 -0.2848 -1.1134 0.0869
32 1 Ar 4.07016 3.74780 1.74778 -1 0 0 -0.2584 1.0099 0.6113
33 1 Ar 3.17631 2.74851 2.90597 -1 0 0 -0.5871 -0.0950 -0.4029
34 1 Ar 1.29297 2.08740 1.28803 0 0 0 -1.6191 -2.6524 -2.4097
35 1 Ar 1.35095 3.64101 3.91388 0 0 0 1.3441 0.9108 -1.7921
36 1 Ar 0.14244 3.68046 4.51970 0 0 0 1.5733 1.9455 -1.4852
37 1 Ar 2.75604 2.05773 4.53013 0 0 -1 1.4751 -0.3767 -1.9767
38 1 Ar 2.61747 1.07754 4.99787 0 0 -1 0.0571 0.5253 0.1858
39 1 Ar 1.90378 4.26878 1.18225 0 -1 0 -0.1945 0.8339 -1.4612
40 1 Ar 2.15555 0.34374 0.96398 0 0 0 -2.1559 0.3377 -0.5231
41 1 Ar 2.91675 4.89889 1.96670 0 -1 0 -1.0113 1.5433 1.1999
42 1 Ar 3.17107 0.81515 2.90881 0 0 0 0.9770 -0.5303 -0.4006
43 1 Ar 3.97178 4.34868 2.64833 0 -1 0 0.7828 -2.2743 0.0994
44 1 Ar 2.71349 0.86660 1.93174 0 0 0 -0.0591 0.9209 -0.5055
45 1 Ar 2.48729 1.19061 3.96462 0 0 0 -0.7415 -0.8917 0.7582
46 1 Ar 2.18184 0.97083 2.96241 0 0 0 -0.7757 -1.9106 -1.5672
47 1 Ar 2.28867 3.57965 0.14856 0 -1 1 0.3685 1.0618 -0.8482
48 1 Ar 5.02681 4.37177 0.30954 -1 -1 1 -1.5052 0.3106 -1.1453
49 1 Ar 1.54607 0.28737 4.77919 0 0 -1 1.3590 2.5510 -0.3428
50 1 Ar 3.52485 2.90519 5.03328 0 0 -1 0.4017 0.5068 0.2133
51 1 Ar 3.89805 2.58964 0.84377 0 0 0 -1.7154 0.3110 -2.3135
52 1 Ar 3.19142 2.01361 1.49538 0 0 0 0.7339 0.5079 -0.6323
53 1 Ar 1.53891 0.01375 1.72152 0 0 0 0.9741 -0.5127 0.5778
54 1 Ar 2.82446 1.14278 0.89567 0 0 0 2.5683 0.5811 -0.0404
55 1 Ar 3.08169 4.05984 0.84949 0 -1 0 3.3573 0.5133 -1.3336
56 1 Ar 1.71524 4.04536 2.90461 0 0 0 -0.8627 1.9788 -0.3105
57 1 Ar 1.42441 0.93922 4.06500 0 0 0 0.8360 0.4284 1.3426
58 1 Ar 1.01264 3.25438 2.83721 0 0 0 -1.1945 -2.2996 -1.0460
59 1 Ar 4.92797 0.79244 4.62068 -1 0 0 1.4060 -2.2047 0.4396
60 1 Ar 4.36920 2.50029 3.36626 -1 0 0 1.3532 2.2318 -0.5306
61 1 Ar 1.82072 1.39734 0.49704 0 0 0 -1.3710 -0.5066 0.7099
62 1 Ar 1.71360 3.03390 0.98657 0 0 0 -0.1811 -1.0733 2.1742
63 1 Ar 2.77883 3.09246 0.94678 0 0 0 1.0895 -0.0070 3.3953
64 1 Ar 2.25847 2.37954 0.40163 0 0 0 2.8386 -1.1257 1.0133
65 1 Ar 1.75828 1.96850 4.35538 0 0 0 0.7037 -2.1511 1.8921
66 1 Ar 3.10315 3.82515 2.56861 0 0 0 -0.3377 1.4314 1.4916
67 1 Ar 1.45708 4.64034 3.88840 0 0 0 -1.4112 -2.3633 0.9885
68 1 Ar 0.00664 2.91098 2.46086 0 0 0 0.2977 -1.4680 0.2440
69 1 Ar 1.30460 2.26549 3.46334 0 0 0 1.6342 -1.9425 0.7013
70 1 Ar 1.20661 4.14626 4.83209 0 0 0 -0.0059 0.3444 -2.1325
71 1 Ar 2.12195 1.57913 1.53655 0 0 1 -0.5606 1.5816 -1.2436
72 1 Ar 0.56214 4.17171 3.19715 0 0 0 -1.5700 1.5600 1.5491
73 1 Ar 3.08058 0.14612 0.42104 0 0 0 0.8225 -0.2885 -0.1058
74 1 Ar 4.53648 1.03868 3.45612 0 0 -1 0.3394 1.9302 2.4977
75 1 Ar 0.03904 0.85253 0.83813 1 0 0 -1.1076 0.7058 -0.2755
76 1 Ar 4.11430 3.30008 2.64627 0 0 -1 -1.3957 0.6407 -1.0586
77 1 Ar 4.30213 0.19436 0.92615 0 0 0 -1.7419 -0.3689 -1.1802
78 1 Ar 3.98398 0.78604 0.10967 0 0 0 -1.7037 -0.8679 0.3359
79 1 Ar 0.64751 4.78058 2.35919 1 -1 0 2.1787 -0.2191 -4.6540
80 1 Ar 3.51224 2.64267 3.96449 0 0 0 -0.7318 1.7922 -2.2100
81 1 Ar 3.18716 4.78330 3.05792 0 -1 0 -0.2741 -0.6820 0.6286
82 1 Ar 3.53490 1.65251 2.25839 0 0 0 -0.6377 -2.4524 0.7906
83 1 Ar 4.55215 4.94446 3.11895 0 -1 0 0.5800 -0.3372 0.1899
84 1 Ar 3.76543 0.41456 3.72958 0 0 0 0.3115 0.5895 -1.4267
85 1 Ar 2.18421 3.04306 2.87292 0 0 -1 -0.2696 -0.9368 1.8198
86 1 Ar 4.70623 3.38637 0.43034 0 0 0 0.7506 0.4106 -0.3458
87 1 Ar 4.31236 2.70485 1.71099 0 0 0 -0.0887 0.8923 0.8930
88 1 Ar 4.12456 3.76892 4.60227 0 0 -1 -0.3153 0.6383 1.3701
89 1 Ar 2.31017 4.61810 0.21595 0 -1 0 -0.0940 2.0236 0.6182
90 1 Ar 4.80915 2.00164 1.45243 0 0 0 -0.6935 -0.7239 1.5682
91 1 Ar 0.45119 1.23784 3.89927 1 0 0 1.4644 -0.6582 -0.1956
92 1 Ar 1.64651 2.12005 2.44097 0 0 0 1.3146 -0.1759 -0.3637
93 1 Ar 2.52593 2.15728 3.55046 0 0 0 -2.3825 -0.2578 -0.5553
94 1 Ar 3.52916 4.49795 4.08794 0 0 0 -0.1568 0.9902 1.7446
95 1 Ar 0.80010 0.86046 0.13375 1 0 1 1.1328 -3.3562 1.6567
96 1 Ar 3.31360 3.06771 1.76474 0 0 0 -0.4250 -0.5526 -0.9985
97 1 Ar 3.50633 3.64342 3.59493 0 0 -1 0.6077 0.6595 -0.1935
98 1 Ar 4.40216 1.58434 4.51218 0 1 -1 -0.3231 -0.5310 0.3307
99 1 Ar 3.98607 4.36808 0.39543 0 0 0 -1.4317 0.4028 0.5892
100 1 Ar 3.43393 1.24562 4.34906 0 1 -1 -1.1476 0.1389 0.3211
101 1 Ar 2.17221 3.63550 1.81872 0 0 0 0.5620 2.0040 0.0981
102 1 Ar 3.19935 3.89269 4.87200 0 0 -1 0.1567 0.9340 -0.0801
103 1 Ar 3.59401 4.81536 1.34143 0 0 0 1.4344 -0.0376 -1.4293
104 1 Ar 2.44526 3.94396 3.93772 0 0 0 -1.6609 -0.4890 -2.5609
105 1 Ar 4.97958 3.98243 2.36288 0 0 0 1.3367 2.0673 -1.0236
106 1 Ar 2.27139 0.00831 3.35174 1 1 0 0.1336 0.6929 2.0022
107 1 Ar 3.62792 1.58392 3.38071 0 0 0 -1.2146 1.0446 1.0655
108 1 Ar 3.69893 0.55379 2.14399 0 1 0 -0.9346 -0.6609 -1.1754
ITEM: TIMESTEP
1320
ITEM: NUMBER OF ATOMS
108
ITEM: BOX BOUNDS pp pp pp
0.0000000000000000e+00 5.0387885741475218e+00
0.0000000000000000e+00 5.0387885741475218e+00
0.0000000000000000e+00 5.0387885741475218e+00
ITEM: ATOMS id type element x y z ix iy iz vx vy vz
1 1 Ar 0.96509 0.30636 4.26628 0 0 -1 1.5404 -1.6191 0.8609
2 1 Ar 0.33216 0.24111 1.18365 0 0 0 1.8716 -1.0050 -1.4476
3 1 Ar 0.61419 2.88863 0.76941 0 -1 0 1.5481 2.1786 1.4519
4 1 Ar 0.97759 1.08752 1.29818 0 0 0 -0.8094 1.7621 0.7445
5 1 Ar 4.08628 1.53571 0.78132 -1 0 0 1.1687 1.1825 1.1319
6 1 Ar 2.71987 1.82560 2.38399 -1 0 0 0.4060 -0.9573 -0.6267
7 1 Ar 1.55190 0.75404 2.10899 0 0 0 -0.5461 -0.9257 -1.2678
8 1 Ar 4.16106 2.18345 2.62044 -1 0 0 -1.6010 2.1218 1.1687
9 1 Ar 0.15669 4.70902 4.10506 0 -1 0 0.4037 0.5462 1.6141
10 1 Ar 2.89061 0.26806 4.54913 0 0 0 3.4548 0.6654 0.9133
11 1 Ar 0.86003 4.45846 0.71360 0 -1 1 -1.6137 -1.4099 1.4183
12 1 Ar 4.19856 0.06285 4.65693 -1 0 0 -0.0014 -0.1413 -1.1304
13 1 Ar 3.45572 1.73198 0.05100 -1 0 0 0.3368 0.4944 -1.5387
14 1 Ar 0.06823 2.06215 0.50271 0 0 0 -4.2619 2.2029 -1.0057
15 1 Ar 0.78290 2.73547 1.85042 0 0 0 -0.4453 -0.6613 0.1981
16 1 Ar 4.53385 4.93427 1.67957 -1 0 0 -1.4914 -1.9320 0.9590
17 1 Ar 0.27108 1.95595 3.18772 0 0 0 -0.4659 0.3743 -1.1433
18 1 Ar 2.35095 2.71352 1.88073 0 0 0 -1.5072 0.6313 1.6517
19 1 Ar 1.22587 1.28665 3.03050 0 0 0 -0.6267 0.7517 2.1613
20 1 Ar 0.42316 2.73523 4.00665 0 0 0 1.5829 0.0400 0.6182
21 1 Ar 0.34606 0.60766 3.02615 0 0 0 -0.6085 -1.4921 -4.0433
22 1 Ar 0.53484 1.87658 4.62705 0 0 0 -0.5605 0.8826 -0.2862
23 1 Ar 0.59044 1.50803 2.42807 0 0 1 -1.8004 -0.1349 -0.4107
24 1 Ar 4.79076 3.85647 3.48498 -1 0 0 1.1317 2.3532 -1.3360
25 1 Ar 4.34071 2.59030 4.84849 -1 0 -1 -0.9221 0.4114 -0.4663
26 1 Ar 2.28881 2.88783 4.19152 0 0 -1 0.8400 -0.5600 1.2862
27 1 Ar 1.51319 2.72505 0.02368 0 0 0 -0.1196 -2.0097 0.2743
28 1 Ar 1.25173 3.68322 1.92669 0 0 0 1.1188 -0.9655 -0.3065
29 1 Ar 0.13852 4.02615 1.19364 0 0 0 0.8588 1.3710 -1.0830
30 1 Ar 4.73699 0.86420 2.29822 -1 1 0 -1.3813 0.0150 -0.2804
31 1 Ar 1.27939 0.25878 3.10352 0 1 0 1.9136 1.4501 1.5510
32 1 Ar 4.07918 3.86414 1.56451 -1 0 0 1.0056 -0.9291 -0.9523
33 1 Ar 2.94493 2.63498 2.91961 -1 0 0 -2.1046 0.4516 -0.1464
34 1 Ar 1.18751 2.04013 1.23853 0 0 0 -0.7658 0.6745 -0.1153
35 1 Ar 1.15350 3.42684 3.51469 0 0 0 -0.9713 -0.2386 1.0025
36 1 Ar 0.38043 3.55934 4.60426 0 0 0 -0.0603 -1.5474 0.6797
37 1 Ar 2.98170 2.21140 4.34681 0 0 -1 -0.2516 0.1255 -0.5644
38 1 Ar 2.64222 1.04972 0.16382 0 0 0 1.8551 -0.0230 3.1485
39 1 Ar 1.85599 3.99428 0.88729 0 -1 0 0.2958 -3.0967 1.6686
40 1 Ar 1.86308 0.48055 0.88716 0 0 0 -0.4026 -0.3813 0.3066
41 1 Ar 2.51031 4.96648 2.45112 0 -1 0 -1.1590 -0.0012 3.7083
42 1 Ar 3.17234 0.61905 2.96518 0 0 0 1.6498 0.1624 0.3278
43 1 Ar 4.10736 4.28223 2.66099 0 -1 0 -0.1818 -0.1822 -1.3391
44 1 Ar 2.69364 0.87486 2.12254 0 0 0 -0.2084 -2.5897 0.6133
45 1 Ar 2.53259 1.05311 3.93499 0 0 0 -0.3504 0.6854 -0.3831
46 1 Ar 2.16398 0.93619 2.93960 0 0 0 -0.6369 1.1833 -1.9086
47 1 Ar 2.08678 3.55472 0.04334 0 -1 1 0.4448 -1.7580 -1.7210
48 1 Ar 0.08624 4.55096 0.08664 0 -1 1 1.5234 -0.0868 -0.9264
49 1 Ar 1.68405 0.62328 4.79794 0 0 -1 -0.6638 1.7431 -0.3650
50 1 Ar 3.36192 3.13936 4.69693 0 0 -1 -0.7152 1.3066 0.1658
51 1 Ar 3.95318 2.64048 0.72113 0 0 0 0.5040 0.2719 -0.0978
52 1 Ar 3.22948 2.11423 1.35418 0 0 0 1.6314 0.4138 1.0484
53 1 Ar 1.85774 4.69976 1.71339 0 -1 0 0.4497 -1.1014 -0.9041
54 1 Ar 3.27196 0.93354 1.05841 0 0 0 1.5282 -1.3070 0.0743
55 1 Ar 3.05624 3.97132 0.85827 0 -1 0 -1.6034 -0.3454 -0.1149
56 1 Ar 1.66276 4.38309 2.70873 0 0 0 1.1866 0.4377 -2.5264
57 1 Ar 1.60330 1.14278 3.94300 0 0 0 0.5806 1.3292 -0.3475
58 1 Ar 1.04632 2.74052 2.79543 0 0 0 0.0895 -2.0261 0.7824
59 1 Ar 0.09842 0.47365 4.88411 0 0 0 0.2981 0.6084 1.0210
60 1 Ar 4.56209 2.67281 3.56880 -1 0 0 0.2384 -0.2296 2.9647
61 1 Ar 1.52780 1.40327 0.41879 0 0 0 -1.8330 1.5823 -0.1853
62 1 Ar 1.61435 3.06451 1.21014 0 0 0 -0.9973 1.1892 -0.5859
63 1 Ar 2.57933 2.99665 0.84670 0 0 0 -1.2252 -0.6310 -1.2138
64 1 Ar 2.53063 2.08191 0.51649 0 0 0 -0.5426 -1.1754 -0.2441
65 1 Ar 2.07835 1.88219 4.75735 0 0 0 0.6270 1.6863 -0.9038
66 1 Ar 2.93338 3.76496 2.73616 0 0 0 1.5053 -2.1431 -0.5837
67 1 Ar 1.44667 4.44258 3.85361 0 0 0 -0.7258 -2.3901 0.3471
68 1 Ar 0.06251 2.67900 2.49699 0 0 0 -1.1490 -0.5706 0.8373
69 1 Ar 1.17536 2.17979 3.74284 0 0 0 -1.6712 -0.2421 1.6069
70 1 Ar 1.32885 4.13389 4.88670 0 0 0 1.3548 0.3710 0.0135
71 1 Ar 2.29724 1.60133 1.32225 0 0 1 -0.8877 -1.7551 -0.4679
72 1 Ar 0.71137 4.24172 3.13200 0 0 0 0.3190 0.1621 0.3800
73 1 Ar 3.15316 0.07989 0.52786 0 0 0 -0.9623 0.2299 -0.6319
74 1 Ar 4.51519 1.45640 3.62278 0 0 -1 -1.4114 1.7126 -0.7059
75 1 Ar 0.06322 1.06784 0.78558 1 0 0 -0.2083 -0.9799 -0.0357
76 1 Ar 4.01963 3.20362 2.77573 0 0 -1 0.7631 -0.1939 -0.1835
77 1 Ar 4.53589 0.26717 0.62883 0 0 0 0.1307 -0.2203 -1.5230
78 1 Ar 3.81750 0.82426 0.13369 0 0 0 -1.5186 0.1828 2.5329
79 1 Ar 0.69035 4.88970 2.28018 1 -1 0 -1.6004 1.6265 -1.3487
80 1 Ar 3.50754 2.92224 3.72860 0 0 0 1.8058 2.3456 -1.2774
81 1 Ar 3.20309 4.70056 3.12564 0 -1 0 -0.0790 -1.1837 -1.5772
82 1 Ar 3.72278 1.39520 2.36437 0 0 0 0.4613 0.3720 0.5603
83 1 Ar 4.66143 4.95799 3.22379 0 -1 0 0.9061 0.3919 0.1953
84 1 Ar 3.99183 0.43153 3.71775 0 0 0 2.5150 -0.5431 0.1555
85 1 Ar 1.98469 3.03272 3.03926 0 0 -1 -0.0835 0.4098 -0.2363
86 1 Ar 4.53354 3.42971 0.52944 0 0 0 -0.0510 1.6690 1.9869
87 1 Ar 4.52967 2.93985 1.63775 0 0 0 1.8696 0.4878 -2.1388
88 1 Ar 4.29509 3.87465 4.36478 0 0 -1 0.3650 0.9738 -1.8178
89 1 Ar 2.36426 4.59864 0.15106 0 -1 0 -1.5684 -0.0361 0.9350
90 1 Ar 4.92382 1.86124 1.50869 0 0 0 -0.7098 0.3685 -0.3623
91 1 Ar 0.40089 1.11940 3.88986 1 0 0 -1.4533 0.4826 1.4455
92 1 Ar 1.46248 2.05966 2.32877 0 0 0 0.1262 -1.9425 -2.1584
93 1 Ar 2.48562 1.94877 3.47529 0 0 0 -1.5967 -2.3531 -0.6106
94 1 Ar 3.48234 4.65513 4.12954 0 0 0 0.1846 0.8210 1.2167
95 1 Ar 0.91331 0.49990 0.39630 1 0 1 0.3724 -2.3526 0.8786
96 1 Ar 3.27281 3.16883 1.92071 0 0 0 0.5852 2.0444 -1.2094
97 1 Ar 3.65679 3.86549 3.49607 0 0 -1 0.7427 1.6160 0.7695
98 1 Ar 4.39905 1.61555 4.83644 0 1 -1 2.3895 0.6753 1.7547
99 1 Ar 3.85630 4.31145 0.43823 0 0 0 -0.6725 -2.5813 1.2562
100 1 Ar 3.54674 1.15822 4.20034 0 1 -1 3.0132 1.2670 -0.5466
101 1 Ar 2.24899 3.82684 1.91180 0 0 0 -0.3387 0.0944 -1.1471
102 1 Ar 3.03348 4.04288 4.77566 0 0 -1 0.7590 -0.7890 -1.1327
103 1 Ar 3.32467 4.74977 1.41989 0 0 0 -2.4401 0.4431 1.7368
104 1 Ar 2.37173 4.11938 3.42636 0 0 0 -0.8305 0.0696 0.0480
105 1 Ar 0.02464 3.94344 2.27690 1 0 0 -0.8294 -1.3127 -0.5930
106 1 Ar 2.25952 0.14393 3.56296 1 1 0 0.5161 0.9998 -0.1821
107 1 Ar 3.47272 1.86001 3.43594 0 0 0 1.8374 -0.2555 -1.0104
108 1 Ar 3.70116 0.56801 1.85926 0 1 0 -0.3826 0.2062 -0.7739
ITEM: TIMESTEP
1360
ITEM: NUMBER OF ATOMS
108
ITEM: BOX BOUNDS pp pp pp
0.0000000000000000e+00 5.0387885741475218e+00
0.0000000000000000e+00 5.0387885741475218e+00
0.0000000000000000e+00 5.0387885741475218e+00
ITEM: ATOMS id type element x y z ix iy iz vx vy vz
1 1 Ar 1.16243 0.12476 4.32924 0 0 -1 0.2052 -0.6202 0.1619
2 1 Ar 0.31732 0.10630 0.91749 0 0 0 -0.4282 3.1224 -2.0183
3 1 Ar 0.58065 3.42573 0.80290 0 -1 0 2.0727 2.4291 0.6407
4 1 Ar 0.88037 1.01057 1.25800 0 0 0 0.7823 -2.0732 -1.5510
5 1 Ar 4.07444 1.63274 0.97837 -1 0 0 0.5306 0.8961 -0.3218
6 1 Ar 2.65197 1.68765 2.19399 -1 0 0 -1.2167 -0.3950 -1.1183
7 1 Ar 1.48816 0.48699 2.00934 0 0 0 -0.7364 -0.9899 0.3518
8 1 Ar 3.96572 2.38292 2.68949 -1 0 0 -1.3315 -0.4514 -0.1696
9 1 Ar 0.10089 4.69939 3.97048 0 -1 0 0.3198 -0.2724 -1.8220
10 1 Ar 3.21052 0.48188 4.67620 0 0 0 0.4547 -0.1012 1.1628
11 1 Ar 1.01933 4.41938 0.88521 0 -1 1 -0.9231 0.3102 1.3367
12 1 Ar 4.41465 5.03738 4.67979 -1 -1 0 0.2300 0.2150 0.5096
13 1 Ar 3.61191 1.99783 0.17232 -1 0 0 1.0680 1.3242 0.7274
14 1 Ar 4.88830 2.52667 0.48679 -1 0 0 1.9377 -1.5858 -0.4737
15 1 Ar 0.66014 2.67960 1.93225 0 0 0 0.8072 -2.0596 0.5994
16 1 Ar 4.58460 4.89805 1.65916 -1 0 0 2.3080 2.5053 1.1162
17 1 Ar 0.27819 2.06973 3.43517 0 0 0 0.8225 0.3386 1.1520
18 1 Ar 2.03409 2.65141 2.22760 0 0 0 -1.3638 -1.4810 2.0285
19 1 Ar 1.00875 1.52674 2.93451 0 0 0 2.0522 1.2495 -0.1602
20 1 Ar 0.36950 2.76942 4.17269 0 0 0 -0.9996 0.5672 1.7082
21 1 Ar 0.47544 0.65982 2.80041 0 0 0 0.6801 -1.6149 0.9640
22 1 Ar 0.52447 1.98700 4.82521 0 0 0 0.0099 0.1000 1.7559
23 1 Ar 0.40560 1.49670 2.16391 0 0 1 0.8871 2.2422 -0.7866
24 1 Ar 4.95382 3.69412 3.28830 -1 0 0 2.2085 -2.6599 0.2539
25 1 Ar 4.28463 2.87255 4.76631 -1 0 -1 -0.0402 1.5532 0.3979
26 1 Ar 2.24101 2.90059 3.80671 0 0 -1 -0.0614 0.7328 -3.1927
27 1 Ar 1.32089 2.53265 0.16940 0 0 0 -0.6615 0.9931 0.6847
28 1 Ar 1.08014 3.56523 1.89022 0 0 0 -1.3498 0.2631 -1.1055
29 1 Ar 0.20482 4.14545 1.33760 0 0 0 2.2734 -0.2813 -0.1611
30 1 Ar 4.56798 0.94850 2.09071 -1 1 0 -0.1098 -0.2911 -1.1606
31 1 Ar 1.42399 0.35296 3.31001 0 1 0 -0.3816 -0.3441 -0.1415
32 1 Ar 4.15788 3.84952 1.42156 -1 0 0 0.6583 0.4494 -0.6709
33 1 Ar 2.87218 2.54537 2.85202 -1 0 0 -0.7835 0.2189 -0.8880
34 1 Ar 0.94696 2.07620 1.14948 0 0 0 -2.4781 -0.1942 0.2594
35 1 Ar 1.13620 3.31191 3.71148 0 0 0 0.2040 -0.9909 0.5394
36 1 Ar 0.37908 3.50063 4.88202 0 0 0 1.1626 -0.9093 -1.5382
37 1 Ar 3.08400 2.23705 4.16143 0 0 -1 0.3908 1.3537 1.4245
38 1 Ar 2.86753 0.95728 0.56766 0 0 0 3.7743 -0.8088 2.3072
39 1 Ar 1.96545 3.76528 0.96196 0 -1 0 1.3044 -0.6255 -0.1364
40 1 Ar 1.91436 0.45436 0.84649 0 0 0 -0.8804 0.7448 0.6092
41 1 Ar 2.22938 0.07935 2.68678 0 0 0 -1.1743 -0.2577 0.1260
42 1 Ar 3.39537 0.73506 3.19132 0 0 0 0.0829 -1.4778 1.0139
43 1 Ar 3.98769 4.41592 2.42083 0 -1 0 0.3434 0.4228 -0.8351
44 1 Ar 2.60929 0.49742 1.82096 0 0 0 -1.5725 -1.3697 -0.2222
45 1 Ar 2.83656 1.29787 3.91438 0 0 0 -0.5844 1.3472 -0.3050
46 1 Ar 2.04319 1.04055 2.70036 0 0 0 -0.6046 0.3186 -0.4871
47 1 Ar 2.22735 3.52361 5.03584 0 -1 0 -0.5883 0.4644 0.2158
48 1 Ar 0.16047 4.47073 0.28535 0 -1 1 -0.3776 0.0656 0.8053
49 1 Ar 1.96541 0.75104 4.93597 0 0 -1 0.4506 -1.0097 -1.5586
50 1 Ar 3.14379 2.92204 4.89283 0 0 -1 -2.7598 -0.5671 1.6372
51 1 Ar 3.69058 2.79508 0.78234 0 0 0 -0.7871 0.6380 -2.0710
52 1 Ar 3.42308 2.14786 1.68831 0 0 0 0.3921 0.9306 1.8733
53 1 Ar 1.82535 4.68057 1.52967 0 -1 0 0.2567 -1.9601 0.2150
54 1 Ar 3.36788 1.14941 1.41110 0 0 0 -0.1957 1.2104 2.6500
55 1 Ar 2.95140 3.98063 0.88127 0 -1 0 0.9374 -0.9409 0.7065
56 1 Ar 1.63821 4.29679 2.51816 0 0 0 1.0681 -0.2619 -0.1071
57 1 Ar 1.47636 0.96726 4.06386 0 0 0 -0.8839 -0.7515 -0.7283
58 1 Ar 1.05987 2.54908 2.92834 0 0 0 1.7388 0.9915 -1.3097
59 1 Ar 0.30485 0.50172 4.88854 0 0 0 1.8129 -2.2414 0.6397
60 1 Ar 4.49169 2.53680 3.66307 -1 0 0 -1.8809 -0.0639 -1.9396
61 1 Ar 1.22462 1.38019 0.18403 0 0 0 -1.1860 -2.9154 -2.0552
62 1 Ar 1.65012 2.89984 1.32446 0 0 0 -1.0598 -2.2491 1.6296
63 1 Ar 2.64352 2.93014 0.82614 0 0 0 2.1899 0.2997 0.3708
64 1 Ar 2.53468 1.95891 0.53470 0 0 0 -0.6061 -1.1682 -0.2764
65 1 Ar 2.15762 1.94900 4.39830 0 0 0 0.8723 -0.4910 0.6619
66 1 Ar 3.18811 3.64916 2.72987 0 0 0 0.5916 0.5654 0.5233
67 1 Ar 1.42724 4.32328 3.80615 0 0 0 0.8589 0.5590 -1.5605
68 1 Ar 4.99654 2.75628 2.63253 -1 0 0 1.5700 -2.2931 2.0358
69 1 Ar 1.23143 2.22360 3.96189 0 0 0 -0.3371 1.3237 1.4837
70 1 Ar 1.22606 4.13789 4.86417 0 0 0 -1.6669 -0.9341 0.1176
71 1 Ar 2.23383 1.28227 1.34167 0 0 1 1.5765 2.3487 -0.7509
72 1 Ar 0.76798 4.50809 3.09318 0 0 0 -0.1054 0.8329 2.6830
73 1 Ar 3.04422 4.91447 0.66060 0 -1 0 -0.0754 1.1768 1.2221
74 1 Ar 4.37750 1.51099 3.47539 0 0 -1 -1.9292 -1.1473 -1.5020
75 1 Ar 5.03731 1.21581 0.70589 0 0 0 -0.3920 0.8667 -0.1260
76 1 Ar 4.15107 3.33113 2.63305 0 0 -1 -1.2477 -0.2790 -1.4160
77 1 Ar 4.37883 4.95671 0.74281 0 -1 0 -1.9114 -1.3896 -0.6846
78 1 Ar 4.00931 0.90563 0.30446 0 0 0 2.7051 0.5506 1.5760
79 1 Ar 0.64191 4.72835 2.11749 1 -1 0 0.2594 -1.4021 -2.0515
80 1 Ar 3.54544 2.91264 3.56276 0 0 0 -0.9208 -0.0806 -0.8605
81 1 Ar 3.16197 4.76281 2.93046 0 -1 0 -2.1124 1.9230 0.1270
82 1 Ar 3.68973 1.42969 2.31139 0 0 0 0.5984 -0.7980 -2.0506
83 1 Ar 4.87062 4.95447 2.89321 0 -1 0 -0.3091 0.1137 -2.6190
84 1 Ar 4.32818 0.54233 3.68085 0 0 0 2.3925 0.1712 0.3655
85 1 Ar 1.84427 3.31589 3.00049 0 0 -1 -0.8469 1.8924 -1.3230
86 1 Ar 4.58285 3.57547 0.41569 0 0 0 -2.2860 2.7549 -1.3912
87 1 Ar 4.86658 3.13563 1.43712 0 0 0 -0.6353 3.6172 0.9268
88 1 Ar 4.51403 4.01372 4.52440 0 0 -1 1.3495 -0.1346 1.9686
89 1 Ar 2.01993 4.72966 0.33391 0 -1 0 -0.3363 -2.1741 -1.2916
90 1 Ar 4.86498 2.07200 1.51958 0 0 0 -0.3143 0.3636 -0.2429
91 1 Ar 0.28853 1.16459 3.90309 1 0 0 0.4153 0.0676 -1.3989
92 1 Ar 1.50310 1.61139 2.06941 0 0 0 -2.1110 -0.1761 0.7309
93 1 Ar 1.99077 2.03730 3.30295 0 0 0 -1.8908 1.5510 -1.4491
94 1 Ar 3.51799 4.86100 3.94767 0 0 0 0.3647 0.9188 -1.8241
95 1 Ar 1.13207 0.18905 0.22849 1 0 1 0.8719 -0.8593 -0.1322
96 1 Ar 3.28734 3.19945 1.49184 0 0 0 -1.5904 -0.7944 0.4636
97 1 Ar 3.93257 3.98548 3.50133 0 0 -1 0.2475 0.9821 0.8483
98 1 Ar 4.67485 1.45492 4.79170 0 1 -1 0.9941 1.0022 -0.1839
99 1 Ar 3.79024 4.20378 0.42744 0 0 0 0.5414 0.1082 -1.4765
100 1 Ar 3.79576 1.36460 4.33799 0 1 -1 -1.4212 0.5332 0.1712
101 1 Ar 2.50340 3.66807 1.89947 0 0 0 -1.1534 -2.4100 0.8203
102 1 Ar 2.92126 4.26323 4.79977 0 0 -1 -0.2619 2.1995 0.3361
103 1 Ar 2.82920 4.52314 1.85369 0 0 0 -1.1349 -1.3543 1.8155
104 1 Ar 2.39493 4.06465 3.46996 0 0 0 1.6402 -0.0437 -0.1854
105 1 Ar 5.03703 3.73904 2.23103 0 0 0 1.3465 1.4088 -0.4905
106 1 Ar 2.52842 0.13628 4.00074 1 1 0 1.2668 -0.3765 3.2296
107 1 Ar 3.23925 1.66555 3.14603 0 0 0 -1.7226 -1.3950 -2.1541
108 1 Ar 3.62006 0.18872 2.09216 0 1 0 -2.1612 -1.6124 1.7953
ITEM: TIMESTEP
1400
ITEM: NUMBER OF ATOMS
108
ITEM: BOX BOUNDS pp pp pp
0.0000000000000000e+00 5.0387885741475218e+00
0.0000000000000000e+00 5.0387885741475218e+00
0.0000000000000000e+00 5.0387885741475218e+00
ITEM: ATOMS id type element x y z ix iy iz vx vy vz
1 1 Ar 1.03768 4.92086 4.20691 0 -1 -1 -0.6387 -0.5563 -0.1483
2 1 Ar 0.04317 0.38582 0.72872 0 0 0 -0.0669 0.0373 -1.8047
3 1 Ar 0.96514 3.47327 0.74257 0 -1 0 -2.2424 -0.2021 -0.7556
4 1 Ar 0.96761 0.99206 1.11454 0 0 0 -2.2173 -1.5798 -2.1604
5 1 Ar 3.98989 1.84254 1.00069 -1 0 0 -0.4524 0.3335 -0.1987
6 1 Ar 2.57596 1.80629 2.13874 -1 0 0 -0.4772 1.3707 0.7129
7 1 Ar 1.37507 0.54706 2.09933 0 0 0 0.5042 2.2550 0.6436
8 1 Ar 3.75809 2.32925 2.74375 -1 0 0 -1.5415 -0.0937 0.2208
9 1 Ar 0.10758 4.64658 3.93804 0 -1 0 1.4450 -0.5225 -0.5045
10 1 Ar 3.44579 0.37453 4.80895 0 0 0 -1.0203 -0.1123 0.5063
11 1 Ar 1.10093 4.41218 1.02057 0 -1 1 -0.5203 0.9071 0.0998
12 1 Ar 4.36347 0.02695 4.72732 -1 0 0 1.7142 -1.4827 0.6542
13 1 Ar 3.70899 2.00959 0.03232 -1 0 0 0.9644 0.6831 -0.4702
14 1 Ar 4.91189 2.56754 0.57116 -1 0 0 -1.1700 1.5216 -0.0299
15 1 Ar 0.73692 2.65798 1.94514 0 0 0 0.0328 1.2540 -0.3917
16 1 Ar 4.97562 0.06554 1.70588 -1 1 0 -0.9335 1.9792 1.0338
17 1 Ar 0.45439 1.98747 3.67365 0 0 0 -0.4840 -0.3501 1.2632
18 1 Ar 1.70967 2.35970 2.34072 0 0 0 -2.9933 0.3658 2.2393
19 1 Ar 1.05430 1.38037 3.01283 0 0 0 -0.4695 -1.2487 -2.1107
20 1 Ar 4.98591 2.61819 4.28767 -1 0 0 -0.1108 -1.3578 1.6553
21 1 Ar 0.46173 0.60527 2.75987 0 0 0 -1.3237 -0.1073 -1.5119
22 1 Ar 0.73374 1.89645 4.97009 0 0 0 -0.1803 -0.3055 1.2780
23 1 Ar 0.46107 1.58212 2.27515 0 0 1 1.9570 0.6474 2.2733
24 1 Ar 0.24648 3.27414 3.47664 0 0 0 -1.5253 -0.1911 1.7127
25 1 Ar 4.16136 3.05272 4.63021 -1 0 -1 -2.6496 0.7478 -0.2046
26 1 Ar 2.39905 3.02402 3.65028 0 0 -1 0.2334 -0.9103 1.6097
27 1 Ar 1.42785 2.64562 0.21391 0 0 0 1.8541 -1.9552 -1.8818
28 1 Ar 0.98321 3.68322 1.76188 0 0 0 0.0152 -0.9960 0.3862
29 1 Ar 5.00471 4.24986 1.18052 -1 0 0 0.2380 1.0573 0.4133
30 1 Ar 4.75524 1.02882 1.66888 -1 1 0 -0.0177 0.3010 -4.1900
31 1 Ar 1.42467 0.28988 3.41657 0 1 0 0.7072 1.1856 0.7998
32 1 Ar 3.87988 4.24169 1.35948 -1 0 0 -1.6384 0.2300 1.2607
33 1 Ar 2.78026 2.80463 2.53632 -1 0 0 -0.5593 1.0574 -1.9348
34 1 Ar 0.84785 2.00735 0.98635 0 0 0 0.2343 0.5882 -0.9746
35 1 Ar 1.18598 3.36276 3.94110 0 0 0 1.4477 1.9789 2.3617
36 1 Ar 0.32400 3.38481 4.91322 0 0 0 -0.3230 -1.4075 0.3068
37 1 Ar 3.26025 2.29396 4.09341 0 0 -1 0.6136 -0.2845 -1.9863
38 1 Ar 3.31150 1.24342 0.59987 0 0 0 1.0724 2.2489 0.3056
39 1 Ar 1.93572 3.60126 1.00186 0 -1 0 0.9857 0.0531 -1.1334
40 1 Ar 2.04494 0.54765 0.85387 0 0 0 1.7422 -0.2987 -2.2185
41 1 Ar 2.20259 0.10499 2.74397 0 0 0 0.5588 -0.8159 2.4122
42 1 Ar 3.50646 0.78409 3.26760 0 0 0 0.2535 -0.0893 -0.0292
43 1 Ar 3.99871 4.26583 2.34408 0 -1 0 -0.9108 -0.0257 0.4052
44 1 Ar 2.49910 0.42133 1.83491 0 0 0 0.8004 1.0078 -0.8151
45 1 Ar 2.49764 1.08823 3.93221 0 0 0 -1.7768 -1.5290 -0.2362
46 1 Ar 2.01768 1.12967 2.84080 0 0 0 0.9314 0.4436 0.5838
47 1 Ar 1.88103 3.39227 4.78227 0 -1 0 -2.8742 -1.1326 -2.3756
48 1 Ar 0.21364 4.48396 0.19161 0 -1 1 0.4691 1.0062 -1.2164
49 1 Ar 2.13501 0.73867 4.88419 0 0 -1 0.2839 1.1677 1.0603
50 1 Ar 2.90691 2.96059 4.90401 0 0 -1 0.5152 0.0010 -0.2113
51 1 Ar 3.78966 3.09046 0.64087 0 0 0 -1.3828 0.4986 0.4698
52 1 Ar 3.44405 2.23362 1.71937 0 0 0 -0.6637 0.1269 -0.4542
53 1 Ar 2.08575 4.59711 1.46444 0 -1 0 0.8278 0.8824 -2.2288
54 1 Ar 3.14364 1.18216 1.67696 0 0 0 -0.0329 0.1118 -1.6506
55 1 Ar 3.06024 3.80838 1.03071 0 -1 0 -1.5873 -1.2185 -0.4266
56 1 Ar 1.53688 4.30525 2.50551 0 0 0 1.1330 -0.7685 0.9327
57 1 Ar 1.45091 1.31403 4.07640 0 0 0 -0.3357 -0.1095 0.0643
58 1 Ar 0.89566 2.74653 3.04619 0 0 0 -0.6092 -1.4891 0.9196
59 1 Ar 0.24177 0.33437 4.67530 0 0 0 -1.1682 -0.2398 -1.4731
60 1 Ar 4.29622 2.61078 3.56864 -1 0 0 -0.8643 0.9616 0.4112
61 1 Ar 1.00300 0.97239 4.88842 0 0 -1 -0.6256 -0.5406 -1.5399
62 1 Ar 1.56425 2.53921 1.18963 0 0 0 2.0001 0.5026 -1.7326
63 1 Ar 2.51344 2.72877 1.17724 0 0 0 0.3616 -2.3326 2.4090
64 1 Ar 2.71850 1.96535 0.28310 0 0 0 2.3846 1.2429 -0.2376
65 1 Ar 2.04564 1.90876 4.51032 0 0 0 2.1920 0.2896 0.7707
66 1 Ar 3.16421 3.82317 2.85563 0 0 0 0.3887 1.2782 2.2953
67 1 Ar 1.72350 4.23532 3.67211 0 0 0 -0.4703 0.1093 -0.2673
68 1 Ar 4.99370 2.46714 2.66653 -1 0 0 -1.3584 -1.5029 -1.0361
69 1 Ar 1.22232 2.42010 4.18741 0 0 0 -1.0625 2.6214 -0.9877
70 1 Ar 1.12744 4.18725 4.89586 0 0 0 -0.7177 -0.8560 0.1873
71 1 Ar 2.20439 1.61200 1.12631 0 0 1 0.0994 1.3990 -2.1764
72 1 Ar 0.76101 4.55916 3.02851 0 0 0 1.0643 1.3486 1.0601
73 1 Ar 2.99094 4.89102 0.96345 0 -1 0 -0.4109 -0.8750 1.6304
74 1 Ar 4.18572 1.56556 3.49773 0 0 -1 1.5861 1.8085 2.3282
75 1 Ar 4.95609 1.48057 0.64278 0 0 0 -0.4368 1.6635 -0.5742
76 1 Ar 4.32265 3.11942 2.38473 0 0 -1 2.5758 -1.7773 -0.5494
77 1 Ar 4.18269 4.95055 0.78338 0 -1 0 -0.2737 1.3397 -0.7937
78 1 Ar 4.28824 0.86488 0.34743 0 0 0 -1.2484 -0.1063 -1.5609
79 1 Ar 0.74000 4.67552 1.91485 1 -1 0 -0.5591 -0.1699 -0.7197
80 1 Ar 3.38097 3.16609 3.50324 0 0 0 1.6997 -0.3902 1.8529
81 1 Ar 3.15786 4.80635 3.05862 0 -1 0 2.1691 1.1634 1.1348
82 1 Ar 3.91472 1.17731 2.32673 0 0 0 0.7639 -0.5344 -0.5146
83 1 Ar 4.75644 4.91769 2.91109 0 -1 0 -0.4855 0.5759 2.2974
84 1 Ar 4.54667 0.54195 3.72260 0 0 0 -1.7006 1.3917 -0.4754
85 1 Ar 1.72889 3.46603 3.00185 0 0 -1 -0.4487 0.5321 0.8351
86 1 Ar 4.72465 3.52193 0.57599 0 0 0 0.6836 -1.5692 -2.4089
87 1 Ar 4.98980 3.28663 1.59142 0 0 0 1.6471 1.9948 2.0732
88 1 Ar 4.54475 3.92736 4.44728 0 0 -1 -0.6815 -1.5576 0.0357
89 1 Ar 2.08013 4.48405 0.36728 0 -1 0 1.5074 -0.0639 2.9931
90 1 Ar 4.81228 2.22689 1.69027 0 0 0 -1.0269 -1.6844 1.6815
91 1 Ar 0.50856 0.90824 3.83894 1 0 0 2.1688 -1.7773 0.7416
92 1 Ar 1.39875 1.56962 1.73992 0 0 0 -0.3940 -0.8117 0.2905
93 1 Ar 2.12838 2.04584 3.41130 0 0 0 1.0269 -0.3858 2.4203
94 1 Ar 3.70768 4.86660 4.01182 0 0 0 0.3480 -1.0456 0.2573
95 1 Ar 1.34125 0.07917 0.29122 1 0 1 -0.7567 -0.6071 -0.6072
96 1 Ar 3.35968 3.39548 1.88720 0 0 0 0.6948 0.1707 -1.9531
97 1 Ar 4.09940 3.94441 3.49916 0 0 -1 1.1405 -0.9511 -1.2000
98 1 Ar 4.67396 1.58326 4.56652 0 1 -1 -0.4507 0.4103 -1.5393
99 1 Ar 3.85449 4.08632 0.05242 0 0 0 2.1891 -1.5538 -0.1876
100 1 Ar 3.61912 1.22381 4.20295 0 1 -1 -0.9163 -2.1983 -0.6257
101 1 Ar 2.05547 3.27616 1.88160 0 0 0 -1.0115 0.3801 -0.0477
102 1 Ar 2.87760 4.53823 4.73643 0 0 -1 0.2644 -0.0567 -0.7482
103 1 Ar 2.80569 4.32809 2.06586 0 0 0 0.3946 -0.0617 -0.7600
104 1 Ar 2.79462 3.94023 3.77185 0 0 0 2.6312 -0.2374 4.4482
105 1 Ar 0.09797 3.95901 2.56436 1 0 0 -1.5902 -1.4285 0.2377
106 1 Ar 2.41486 0.08366 3.73561 1 1 0 -1.4569 0.3349 -5.4903
107 1 Ar 2.95438 1.61728 3.14301 0 0 0 -0.3794 0.1963 1.6628
108 1 Ar 3.39548 0.34506 2.26240 0 1 0 0.7073 -1.3093 1.8216
ITEM: TIMESTEP
1440
ITEM: NUMBER OF ATOMS
108
ITEM: BOX BOUNDS pp pp pp
0.0000000000000000e+00 5.0387885741475218e+00
0.0000000000000000e+00 5.0387885741475218e+00
0.0000000000000000e+00 5.0387885741475218e+00
ITEM: ATOMS id type element x y z ix iy iz vx vy vz
1 1 Ar 1.13372 4.88737 4.21788 0 -1 -1 0.1291 0.3437 -1.0314
2 1 Ar 4.87605 0.31907 0.46315 -1 0 0 -0.6946 0.5095 0.5876
3 1 Ar 0.57793 3.28646 0.78239 0 -1 0 -0.2507 -1.3106 0.4430
4 1 Ar 0.92563 0.86246 0.83968 0 0 0 1.0781 0.5491 -0.0916
5 1 Ar 4.01371 2.01222 0.81548 -1 0 0 -0.9607 0.2904 -1.2722
6 1 Ar 2.45613 1.95049 2.22052 -1 0 0 1.3442 -0.1154 -0.7189
7 1 Ar 1.40983 0.62235 2.32085 0 0 0 -0.4105 -0.4732 0.9129
8 1 Ar 3.60757 2.40747 2.97629 -1 0 0 1.0543 0.2093 1.0577
9 1 Ar 0.08884 4.53771 3.88753 0 -1 0 -2.2339 1.4746 0.7167
10 1 Ar 3.18931 0.42518 0.13345 0 0 1 -0.5768 0.3720 2.0955
11 1 Ar 1.00274 4.36792 0.96757 0 -1 1 -0.9391 -1.2872 -0.2184
12 1 Ar 4.39801 4.67411 5.02046 -1 -1 0 -0.0299 -0.6175 2.5430
13 1 Ar 4.04218 2.03833 4.88194 -1 0 -1 -0.3978 -2.0060 0.1596
14 1 Ar 4.76840 2.74003 0.56922 -1 0 0 -0.5873 1.1742 0.1289
15 1 Ar 0.72176 2.62396 1.89435 0 0 0 -0.1196 1.1241 0.9795
16 1 Ar 4.46170 0.25306 1.94163 -1 1 0 -1.3567 0.1128 0.2236
17 1 Ar 0.37635 1.62465 3.76111 0 0 0 2.8634 -0.7168 -2.4063
18 1 Ar 1.54966 2.34577 2.60829 0 0 0 -1.0276 0.2546 0.8764
19 1 Ar 1.12980 1.49077 2.92948 0 0 0 -0.5535 2.2809 -0.9378
20 1 Ar 4.80351 2.51782 4.56365 -1 0 0 -0.2422 1.8735 -0.5101
21 1 Ar 0.32140 0.57643 2.53235 0 0 0 0.1857 0.5901 -0.0894
22 1 Ar 0.73220 1.98232 4.69810 0 0 0 0.5306 0.3432 -2.1770
23 1 Ar 0.52720 1.56101 2.08734 0 0 1 0.5413 -2.2092 -0.9760
24 1 Ar 0.15465 3.32132 3.61669 0 0 0 -0.4541 0.0110 -0.8713
25 1 Ar 3.91778 3.13916 4.59733 -1 0 -1 0.7902 0.6258 0.1694
26 1 Ar 2.44591 2.95558 3.96260 0 0 -1 0.5903 -0.3764 -0.4133
27 1 Ar 1.63572 2.18824 0.10575 0 0 0 0.7502 -1.5322 0.7603
28 1 Ar 1.02075 3.78706 1.72409 0 0 0 -0.6454 0.4411 -1.1042
29 1 Ar 5.03085 4.59573 1.18007 -1 0 0 -0.4422 2.3417 -0.2119
30 1 Ar 4.58072 1.01713 1.19507 -1 1 0 -1.5475 -1.4650 -0.5289
31 1 Ar 1.80939 0.39502 3.37587 0 1 0 3.0566 -0.4105 -0.0763
32 1 Ar 3.87454 4.21608 1.37979 -1 0 0 1.8412 -0.7390 -0.3379
33 1 Ar 2.85536 2.97888 2.47115 -1 0 0 2.0243 -0.4472 0.9294
34 1 Ar 0.69245 2.06069 1.05374 0 0 0 -0.9624 -0.5700 -0.5977
35 1 Ar 0.90645 4.04095 3.75972 0 0 0 2.7780 3.3698 -1.6448
36 1 Ar 0.62900 3.22016 4.58123 0 0 0 -0.2558 0.5875 -0.2735
37 1 Ar 3.42272 2.10762 4.10819 0 0 -1 2.0882 0.2000 0.9242
38 1 Ar 3.20682 1.43752 0.45463 0 0 0 -0.9726 2.3211 0.1334
39 1 Ar 1.61431 3.53049 0.66786 0 -1 0 -1.7287 -1.1019 2.4312
40 1 Ar 2.31754 0.43236 0.62318 0 0 0 -0.0148 -0.2879 -2.5363
41 1 Ar 2.31138 0.00393 2.46980 0 0 0 1.8846 0.0899 1.7006
42 1 Ar 3.62788 0.74447 3.06778 0 0 0 1.2866 -0.7992 -1.8289
43 1 Ar 3.95049 4.32204 2.46967 0 -1 0 -0.1057 -0.5917 -0.9492
44 1 Ar 2.54735 0.78593 1.66539 0 0 0 -0.2156 2.3855 0.0214
45 1 Ar 2.46679 1.06155 3.82993 0 0 0 0.4696 0.2701 -0.0400
46 1 Ar 2.29141 1.03288 2.76329 0 0 0 -0.1634 -1.8929 -2.6268
47 1 Ar 1.84650 3.32874 4.76965 0 -1 0 -2.2653 -0.5841 -1.0274
48 1 Ar 0.34938 4.36286 0.03723 0 -1 1 1.5197 -1.0384 -0.7834
49 1 Ar 2.12636 1.04945 4.86389 0 0 -1 -0.5063 1.3453 0.4062
50 1 Ar 2.90250 3.14228 4.93682 0 0 -1 1.9829 -0.4029 3.1737
51 1 Ar 3.65143 3.00578 0.75579 0 0 0 2.6668 1.4593 0.6607
52 1 Ar 3.78700 2.16381 1.90872 0 0 0 0.0936 0.4387 0.7287
53 1 Ar 1.75553 4.71592 1.59054 0 -1 0 -2.2902 0.2627 0.2166
54 1 Ar 3.36424 1.38195 1.55050 0 0 0 2.2906 1.6468 -0.0627
55 1 Ar 2.82273 3.73778 0.80225 0 -1 0 -1.8046 -0.2457 0.3686
56 1 Ar 1.66352 4.13712 2.50763 0 0 0 -0.3193 -0.2796 1.9252
57 1 Ar 1.34713 1.45408 4.06885 0 0 0 -0.3352 1.4468 -0.6949
58 1 Ar 0.64727 2.59246 3.28931 0 0 0 0.1047 -0.5565 0.0583
59 1 Ar 5.02131 0.38120 4.44922 -1 0 0 -0.2256 -0.9832 -0.6022
60 1 Ar 4.38457 2.72124 3.65369 -1 0 0 0.3485 -0.4529 0.9736
61 1 Ar 1.00942 1.01655 4.88045 0 0 -1 -0.8283 -0.4580 1.9520
62 1 Ar 1.57071 2.63455 1.22898 0 0 0 -1.0943 -0.7456 1.0620
63 1 Ar 2.65994 2.67723 1.33279 0 0 0 -0.3060 1.2375 0.7661
64 1 Ar 3.09421 2.32267 0.46620 0 0 0 -0.0121 0.6725 -0.0066
65 1 Ar 2.59890 1.92837 4.54319 0 0 0 2.5663 -0.3388 -0.0004
66 1 Ar 3.00284 3.75342 3.04435 0 0 0 -1.7343 -0.4780 0.4796
67 1 Ar 1.80062 4.43719 3.48779 0 0 0 1.0502 -0.7158 -1.7894
68 1 Ar 4.90873 2.14610 2.89670 -1 0 0 -0.2277 -0.9668 -1.8686
69 1 Ar 1.25954 2.59033 4.16899 0 0 0 3.5715 -0.3408 -0.5124
70 1 Ar 1.21771 3.99931 4.99603 0 0 0 -0.2874 2.2818 -1.4878
71 1 Ar 2.16867 1.68377 0.78804 0 0 1 -0.1984 -0.4723 -1.1886
72 1 Ar 0.88816 4.86254 3.16153 0 0 0 0.4659 1.1546 -0.6301
73 1 Ar 3.04395 4.94571 1.10379 0 -1 0 -0.9969 0.7511 0.3450
74 1 Ar 4.21762 1.60409 3.51331 0 0 -1 -3.3898 -1.7424 -0.1799
75 1 Ar 4.97851 1.48158 0.32985 0 0 0 0.3250 -1.1684 0.4203
76 1 Ar 4.27369 3.00245 2.34676 0 0 -1 0.1041 -1.0414 1.1490
77 1 Ar 3.94993 0.07558 0.81005 0 0 0 -1.4153 1.0720 1.1794
78 1 Ar 4.11588 0.83880 5.00486 0 0 -1 -0.9353 -1.6895 -0.2980
79 1 Ar 0.74889 4.72677 2.16597 1 -1 0 -0.1758 0.7306 1.2486
80 1 Ar 3.48041 3.04108 3.59151 0 0 0 -1.7132 0.1698 -0.0622
81 1 Ar 3.29649 4.77317 3.18490 0 -1 0 -0.4273 -0.2278 -0.6364
82 1 Ar 4.22329 1.29179 2.30769 0 0 0 1.4939 0.0797 0.4001
83 1 Ar 4.47414 4.91789 3.12955 0 -1 0 -1.7862 0.5965 0.4266
84 1 Ar 4.36534 0.70859 3.86703 0 0 0 -2.2223 -2.0238 -0.8213
85 1 Ar 1.67415 3.14739 3.17561 0 0 -1 -0.2260 -1.3927 1.5519
86 1 Ar 4.73677 3.75460 0.52768 0 0 0 -0.2082 1.9197 1.0796
87 1 Ar 0.03478 3.53674 1.58634 1 0 0 -1.7111 0.4803 -0.5317
88 1 Ar 4.58302 3.79709 4.59889 0 0 -1 -0.6325 -0.7241 2.1072
89 1 Ar 2.07823 4.46182 0.50093 0 -1 0 -2.5386 -0.1023 1.3318
90 1 Ar 4.73310 2.07188 1.87746 0 0 0 3.1812 0.8221 0.7409
91 1 Ar 0.54988 0.64170 3.57647 1 0 0 -0.8716 -0.9333 -2.0847
92 1 Ar 1.54028 1.74091 1.69526 0 0 0 1.5778 0.8530 -1.1205
93 1 Ar 2.00996 2.13786 3.48968 0 0 0 -0.0103 1.2018 -2.0504
94 1 Ar 3.80317 4.50496 4.06895 0 0 0 0.5733 -1.7239 -0.9292
95 1 Ar 1.21548 0.01939 0.21116 1 0 1 0.2812 0.2233 0.6923
96 1 Ar 3.51311 3.24941 1.69540 0 0 0 -0.4955 -0.4841 -0.8127
97 1 Ar 4.24410 3.79210 3.44722 0 0 -1 -1.0850 -0.9279 2.4115
98 1 Ar 4.79908 1.38777 4.35977 0 1 -1 0.4007 -0.4835 -0.4103
99 1 Ar 3.51604 4.04603 0.26012 0 0 0 -1.4348 -0.4336 0.8960
100 1 Ar 3.38761 1.07382 4.24991 0 1 -1 -0.9006 0.0387 0.1659
101 1 Ar 1.99097 3.24878 2.02308 0 0 0 0.3803 -1.8738 -0.9323
102 1 Ar 3.01033 4.65368 4.79873 0 0 -1 0.6943 0.1827 2.3365
103 1 Ar 2.94096 4.29382 2.00585 0 0 0 0.3034 -0.8761 0.2102
104 1 Ar 3.10536 3.82834 4.26670 0 0 0 0.6924 -2.0079 -1.2400
105 1 Ar 0.00855 3.87257 2.68232 1 0 0 1.8024 0.5840 -0.2328
106 1 Ar 2.64855 4.99455 4.02247 1 0 0 1.1784 0.9636 0.1911
107 1 Ar 3.04131 1.59927 3.20281 0 0 0 0.3948 1.0039 -0.0479
108 1 Ar 3.56645 0.16292 2.07941 0 1 0 -1.8303 0.1014 -1.9344
ITEM: TIMESTEP
1480
ITEM: NUMBER OF ATOMS
108
ITEM: BOX BOUNDS pp pp pp
0.0000000000000000e+00 5.0387885741475218e+00
0.0000000000000000e+00 5.0387885741475218e+00
0.0000000000000000e+00 5.0387885741475218e+00
ITEM: ATOMS id type element x y z ix iy iz vx vy vz
1 1 Ar 1.17337 0.36438 4.16727 0 0 -1 0.1980 3.1229 -0.3827
2 1 Ar 0.17088 0.44019 0.60112 0 0 0 1.8114 0.5184 1.1759
3 1 Ar 0.65378 3.07569 0.86117 0 -1 0 -0.6240 -0.7593 0.5948
4 1 Ar 1.24530 0.84743 0.98587 0 0 0 3.1728 -1.5745 -2.0827
5 1 Ar 4.10256 2.09349 0.97811 -1 0 0 1.0962 -0.6877 -1.1114
6 1 Ar 2.78813 1.86412 2.06792 -1 0 0 1.2658 -2.6476 -0.6796
7 1 Ar 1.33715 0.49820 2.28165 0 0 0 0.0955 -0.7985 -1.7861
8 1 Ar 3.89359 2.15324 2.87149 -1 0 0 0.3166 -1.0920 -1.1247
9 1 Ar 4.80129 4.47877 3.82906 -1 -1 0 -0.0628 -0.1456 -0.8670
10 1 Ar 3.18974 0.31134 0.36982 0 0 1 0.3423 -0.4757 0.6665
11 1 Ar 0.70343 4.23431 0.76021 0 -1 1 0.2732 -0.7240 0.6570
12 1 Ar 4.29332 4.84980 0.17033 -1 -1 1 1.0716 -0.8794 1.1734
13 1 Ar 4.03247 1.65607 4.99362 -1 0 -1 1.2239 1.1049 0.2501
14 1 Ar 4.93025 2.43410 0.52071 -1 0 0 0.6412 -2.8114 -0.5793
15 1 Ar 0.49596 2.88340 2.19932 0 0 0 -2.5314 0.1202 2.3764
16 1 Ar 4.39204 0.19329 2.05656 -1 1 0 -1.9005 -0.2236 -0.3263
17 1 Ar 0.32943 1.67873 3.61160 0 0 0 0.7573 0.7071 -0.2678
18 1 Ar 1.55140 2.39874 2.34960 0 0 0 0.0945 -0.1677 -2.3001
19 1 Ar 1.40572 1.44933 2.66278 0 0 0 0.8885 -0.4977 1.3836
20 1 Ar 4.87257 2.74283 4.56300 -1 0 0 -0.1791 -0.2689 -0.3510
21 1 Ar 0.20935 0.60349 2.55699 0 0 0 0.4445 -0.2537 0.9317
22 1 Ar 0.60147 2.04844 4.52374 0 0 0 0.3056 0.3785 -0.1443
23 1 Ar 0.62940 1.34342 1.86315 0 0 1 -1.6711 1.1949 1.1203
24 1 Ar 0.18058 3.52822 3.62101 0 0 0 -0.1113 -0.3143 0.0231
25 1 Ar 3.79521 2.93926 4.70067 -1 0 -1 -0.4551 -0.2496 1.1589
26 1 Ar 2.58094 2.91314 4.06232 0 0 -1 1.4495 0.2076 0.9844
27 1 Ar 1.56983 2.20992 0.02583 0 0 0 -1.0170 1.1889 0.2465
28 1 Ar 0.91285 3.81849 1.76956 0 0 0 -1.7750 2.2256 -0.2861
29 1 Ar 4.92836 4.81468 1.25706 -1 0 0 -2.0351 -0.7053 -1.1773
30 1 Ar 4.52305 1.14062 1.24250 -1 1 0 2.4106 1.2624 -0.1646
31 1 Ar 1.90758 0.46763 3.34651 0 1 0 0.1689 2.1171 -0.0260
32 1 Ar 3.94291 4.24960 1.38521 -1 0 0 -0.7727 0.3076 -0.4415
33 1 Ar 2.97411 2.72003 2.50572 -1 0 0 -1.7249 -0.8543 -2.1830
34 1 Ar 0.68015 1.94715 0.86097 0 0 0 1.7351 -1.4561 -1.5489
35 1 Ar 1.05090 3.99061 3.63379 0 0 0 -0.0734 1.3657 0.7086
36 1 Ar 0.76890 3.53515 4.62501 0 0 0 1.6551 2.2748 0.4557
37 1 Ar 3.59240 2.04317 4.04047 0 0 -1 0.1917 -2.3005 -0.5821
38 1 Ar 3.25122 1.34216 0.46907 0 0 0 -0.1883 -2.0197 0.9649
39 1 Ar 1.47221 3.51768 1.02148 0 -1 0 0.6033 -0.5779 -0.0004
40 1 Ar 2.05720 0.47877 0.48926 0 0 0 0.1094 1.0710 0.1817
41 1 Ar 2.35132 4.80214 2.60265 0 -1 0 -2.3132 -1.5102 0.2097
42 1 Ar 3.67730 0.62686 2.59995 0 0 0 0.1708 0.2752 -0.8141
43 1 Ar 3.96941 3.99829 2.39907 0 -1 0 -0.0911 -2.6938 1.4155
44 1 Ar 2.53594 0.92261 1.46878 0 0 0 -2.3305 -0.8500 -2.0537
45 1 Ar 2.55283 1.20311 3.86672 0 0 0 1.4938 0.3756 -0.3684
46 1 Ar 2.34324 1.06988 2.59443 0 0 0 0.4348 0.1371 0.4506
47 1 Ar 1.77301 3.27130 4.85014 0 -1 0 0.3274 0.3467 1.5323
48 1 Ar 0.21497 4.57319 4.92783 0 -1 0 -0.1141 -0.1831 -1.1579
49 1 Ar 1.89802 1.22985 4.81341 0 0 -1 -1.1264 -0.4110 -0.5958
50 1 Ar 2.75754 3.51336 0.16905 0 0 0 -2.5546 0.7577 1.3033
51 1 Ar 4.06784 3.09468 1.00972 0 0 0 1.4625 -0.5858 1.4610
52 1 Ar 3.72125 2.41001 1.83036 0 0 0 -0.5475 0.4288 -0.0705
53 1 Ar 1.55135 4.81566 1.63149 0 -1 0 0.3897 0.3083 -0.0819
54 1 Ar 3.43532 1.27572 1.57341 0 0 0 0.5006 -0.1253 1.5096
55 1 Ar 2.55000 3.70749 1.22842 0 -1 0 1.3407 0.5956 1.2828
56 1 Ar 1.53381 4.05331 2.58841 0 0 0 -0.4021 1.3324 1.9520
57 1 Ar 1.41688 1.33799 3.84116 0 0 0 -2.9075 -2.7919 -1.9914
58 1 Ar 0.93256 2.63778 3.20758 0 0 0 0.7203 0.8595 -0.2513
59 1 Ar 0.14615 0.41738 4.52938 0 0 0 -0.1032 0.7381 -0.0325
60 1 Ar 4.68337 2.60207 3.62010 -1 0 0 2.7324 0.1663 -0.0065
61 1 Ar 0.78488 1.11592 4.83595 0 0 -1 -0.2160 2.2759 -0.5310
62 1 Ar 1.37322 2.40998 1.31954 0 0 0 0.9638 -0.6199 1.3866
63 1 Ar 2.61087 2.70971 1.58663 0 0 0 -0.4924 0.0234 1.8745
64 1 Ar 2.94668 2.49496 0.55635 0 0 0 0.0547 1.5149 -1.1157
65 1 Ar 2.79962 2.01310 4.67791 0 0 0 -0.1498 1.1660 1.0620
66 1 Ar 2.81672 3.65671 2.94237 0 0 0 0.0468 -1.5960 -2.0532
67 1 Ar 2.19891 4.54504 3.74809 0 0 0 -0.9559 2.2521 2.1165
68 1 Ar 4.89795 2.01383 2.81764 -1 0 0 1.6630 0.4769 -1.7952
69 1 Ar 1.57546 2.43359 4.05889 0 0 0 -0.4460 0.6453 -0.1844
70 1 Ar 1.61609 4.40186 4.48565 0 0 0 1.9077 1.6500 -2.0565
71 1 Ar 2.14542 1.61104 0.67076 0 0 1 -1.5099 1.6850 -2.0066
72 1 Ar 1.13605 4.83098 3.10784 0 0 0 -0.2719 -1.6771 0.4355
73 1 Ar 2.55890 4.79416 1.12241 0 -1 0 0.0303 -0.4414 1.2824
74 1 Ar 4.00709 1.19171 3.42907 0 0 -1 1.4875 -1.2152 -0.7201
75 1 Ar 4.93792 1.47874 0.33316 0 0 0 -1.7037 0.2290 -1.5945
76 1 Ar 4.60551 3.15082 2.70905 0 0 -1 1.9043 0.8258 3.5651
77 1 Ar 3.87490 0.13353 1.19867 0 0 0 -0.7143 0.8353 1.9310
78 1 Ar 4.26065 0.73388 4.87478 0 0 -1 0.9763 2.9178 -1.1271
79 1 Ar 0.53543 4.72098 1.94740 1 -1 0 -0.4185 0.8132 -0.0649
80 1 Ar 3.40578 3.00525 3.39325 0 0 0 0.9500 -0.4773 1.0714
81 1 Ar 3.41542 4.68303 3.16316 0 -1 0 0.6297 -1.1385 1.0306
82 1 Ar 4.47279 1.23048 2.25063 0 0 0 0.3430 -0.2880 -1.2851
83 1 Ar 4.40266 4.79153 2.90849 0 -1 0 2.2186 -0.8804 0.0663
84 1 Ar 3.87619 0.41692 3.95306 0 0 0 -0.2902 -1.0584 0.5363
85 1 Ar 1.79604 3.30714 3.30583 0 0 -1 3.0980 -0.1353 -0.8816
86 1 Ar 4.86459 3.92131 0.58547 0 0 0 0.2330 -1.0784 -1.5563
87 1 Ar 4.71782 3.52204 1.78778 0 0 0 -0.7042 -0.0014 0.1883
88 1 Ar 4.64985 3.69419 4.52517 0 0 -1 -0.9711 0.3981 -0.0749
89 1 Ar 1.74924 4.43497 0.66780 0 -1 0 -3.1590 -0.1604 -1.9756
90 1 Ar 4.91975 2.31228 1.52461 0 0 0 -1.6092 0.9141 -1.1846
91 1 Ar 0.19431 0.56903 3.61452 1 0 0 -1.8754 -0.7427 -1.1960
92 1 Ar 1.74713 1.46107 1.76999 0 0 0 0.9559 -1.3452 -0.3658
93 1 Ar 2.09663 2.08451 3.04441 0 0 0 -0.4441 0.1353 -1.2566
94 1 Ar 3.79757 4.45679 4.29436 0 0 0 -0.6310 -2.0276 2.8870
95 1 Ar 1.00600 0.13112 0.26766 1 0 1 -2.2859 -0.5095 -0.5429
96 1 Ar 3.50415 3.38880 1.75720 0 0 0 0.1640 0.0765 0.7134
97 1 Ar 4.15613 3.60798 3.62948 0 0 -1 0.2321 0.8472 0.4337
98 1 Ar 4.80553 1.31865 4.31412 0 1 -1 -0.8659 -0.6531 0.0786
99 1 Ar 3.62822 4.08242 0.39036 0 0 0 -0.7647 0.5540 0.3382
100 1 Ar 3.32373 1.14199 4.45423 0 1 -1 -0.4014 0.6022 2.2631
101 1 Ar 1.99392 3.41070 2.00298 0 0 0 0.6315 2.8045 -0.2264
102 1 Ar 2.65594 4.50609 0.05042 0 0 0 -3.4983 -1.0903 1.5585
103 1 Ar 2.84273 4.11422 2.04154 0 0 0 -1.5847 1.2460 1.0013
104 1 Ar 2.91061 4.08212 4.12872 0 0 0 -0.9877 0.7450 -1.7678
105 1 Ar 0.32441 3.99780 2.62702 1 0 0 1.0455 -0.2177 0.6383
106 1 Ar 2.95083 0.22468 3.98564 1 1 0 1.5684 1.0668 0.7236
107 1 Ar 3.13005 1.59383 3.07414 0 0 0 2.2064 -1.3764 -1.2923
108 1 Ar 3.04876 0.30134 1.90679 0 1 0 -0.6426 -1.8228 -0.6606
ITEM: TIMESTEP
1520
ITEM: NUMBER OF ATOMS
108
ITEM: BOX BOUNDS pp pp pp
0.0000000000000000e+00 5.0387885741475218e+00
0.0000000000000000e+00 5.0387885741475218e+00
0.0000000000000000e+00 5.0387885741475218e+00
ITEM: ATOMS id type element x y z ix iy iz vx vy vz
1 1 Ar 1.18364 0.32210 4.05978 0 0 -1 0.3264 0.0308 -1.5368
2 1 Ar 0.36105 0.43615 0.87981 0 0 0 -0.3755 -0.9972 2.9586
3 1 Ar 0.49066 3.07071 1.11078 0 -1 0 -0.0648 0.9423 1.8842
4 1 Ar 1.36454 0.67653 0.97119 0 0 0 0.9300 -2.2390 0.7598
5 1 Ar 3.93300 1.82412 0.82906 -1 0 0 0.1420 0.2714 -1.7518
6 1 Ar 2.75130 1.69304 1.82542 -1 0 0 -0.3655 0.1770 -2.0667
7 1 Ar 1.29192 0.57817 2.08282 0 0 0 -1.8284 1.6374 -2.5580
8 1 Ar 4.13343 2.21719 2.77147 -1 0 0 -0.7643 0.8317 0.5028
9 1 Ar 5.03693 4.48478 3.86145 -1 -1 0 2.6557 -1.4118 -1.6518
10 1 Ar 3.31499 4.99357 0.15305 0 -1 1 1.2062 -0.8781 -2.2465
11 1 Ar 0.41839 4.16151 0.80979 0 -1 1 0.4598 -0.0211 -0.4428
12 1 Ar 4.37857 4.70438 0.16734 -1 -1 1 -0.3509 -1.7862 -0.0753
13 1 Ar 4.00351 2.08659 4.71122 -1 0 -1 -0.3831 -0.5971 -0.9817
14 1 Ar 4.96181 2.23906 0.50193 -1 0 0 -0.2307 -0.8712 0.9860
15 1 Ar 0.48600 3.06584 2.29817 0 0 0 0.8796 -0.9602 0.3477
16 1 Ar 4.42679 0.16327 1.98644 -1 1 0 0.1593 1.0639 -0.4155
17 1 Ar 0.57683 1.66470 3.20257 0 0 0 0.9632 -1.7344 -1.6500
18 1 Ar 1.56628 2.57985 2.41597 0 0 0 0.8397 0.8821 0.2841
19 1 Ar 1.24369 1.50402 2.60880 0 0 0 -0.3846 1.5124 -0.3749
20 1 Ar 4.67154 2.76756 4.55669 -1 0 0 -0.9336 -0.9251 1.0118
21 1 Ar 0.31905 0.83861 2.59991 0 0 0 1.2463 1.6525 1.3700
22 1 Ar 0.58572 2.37666 4.32976 0 0 0 -1.4287 1.2020 -2.6103
23 1 Ar 0.64387 1.43901 1.76289 0 0 1 3.0148 -0.4363 -2.2085
24 1 Ar 0.34245 3.45662 3.98315 0 0 0 0.8861 -1.0607 2.1470
25 1 Ar 3.57871 3.27421 4.88522 -1 0 -1 -0.8536 4.3708 0.4626
26 1 Ar 2.73642 2.97586 4.30363 0 0 -1 0.1466 -0.9468 0.4658
27 1 Ar 1.26061 2.39533 0.03170 0 0 0 -1.7807 -0.6870 -2.2515
28 1 Ar 0.79702 3.84339 1.85457 0 0 0 1.5267 1.8706 -0.5089
29 1 Ar 4.72092 4.54693 1.30219 -1 0 0 -0.9090 -0.7266 1.7273
30 1 Ar 4.81194 1.45017 1.25216 -1 1 0 -0.2293 1.8333 -0.6275
31 1 Ar 1.76584 0.83913 3.33180 0 1 0 -0.5581 0.8136 -0.5630
32 1 Ar 3.73611 4.09145 1.52186 -1 0 0 -1.1630 -0.6595 2.0620
33 1 Ar 2.99637 2.49295 2.61722 -1 0 0 1.5195 -0.7948 0.0914
34 1 Ar 0.92024 1.62137 0.74357 0 0 0 -0.3141 0.2546 1.1498
35 1 Ar 1.21336 4.05665 3.78023 0 0 0 0.4907 0.0857 0.3017
36 1 Ar 0.81025 3.71362 4.83517 0 0 0 -1.8369 -0.6863 1.4956
37 1 Ar 3.72450 1.71371 3.79724 0 0 -1 0.9648 -1.8051 -0.2105
38 1 Ar 3.12938 1.26017 0.89344 0 0 0 -1.1256 0.2313 1.4504
39 1 Ar 1.85197 3.43013 0.96560 0 -1 0 1.2763 0.5152 -0.5696
40 1 Ar 2.33518 0.47129 4.93007 0 0 -1 0.3811 -1.2199 -0.3283
41 1 Ar 1.91803 4.98437 2.46286 0 -1 0 -0.4924 -0.9075 -1.1595
42 1 Ar 3.77823 0.60265 2.73537 0 0 0 2.6474 -0.3833 2.2963
43 1 Ar 3.87038 3.89035 2.63013 0 -1 0 1.4510 1.5870 -1.8862
44 1 Ar 2.34975 0.69205 1.20136 0 0 0 -1.2148 -1.3214 0.8454
45 1 Ar 2.61120 1.41186 3.85324 0 0 0 1.3991 0.1565 1.5727
46 1 Ar 2.44335 0.79205 2.43347 0 0 0 0.1688 -0.4449 -1.3558
47 1 Ar 1.75702 3.30212 4.95858 0 -1 0 1.0762 -0.2297 -0.4543
48 1 Ar 0.21572 4.51152 4.92243 0 -1 0 0.3071 1.2050 2.0969
49 1 Ar 1.95849 1.17360 4.49863 0 0 -1 1.5370 2.2334 -1.5203
50 1 Ar 2.67130 3.45623 0.08352 0 0 0 1.2527 -1.8661 -0.7595
51 1 Ar 4.13458 2.88652 1.00270 0 0 0 -2.2548 -2.3797 0.0380
52 1 Ar 3.66473 2.26044 1.73065 0 0 0 -0.4442 -0.4426 -0.4729
53 1 Ar 1.58800 4.55743 1.57397 0 -1 0 -0.5591 -1.2122 1.9803
54 1 Ar 3.79570 1.26520 1.70578 0 0 0 -0.5271 0.4791 0.6996
55 1 Ar 2.77043 3.72868 1.21452 0 -1 0 -0.9555 -1.3815 0.7336
56 1 Ar 1.39310 3.88582 2.83053 0 0 0 1.2208 -1.7743 -0.6787
57 1 Ar 1.12545 1.44383 3.95259 0 0 0 -1.1349 3.4479 -0.6064
58 1 Ar 0.92246 2.83456 3.23128 0 0 0 -1.0712 1.3641 1.2178
59 1 Ar 0.03548 0.46019 4.62760 0 0 0 -1.6216 -0.3071 -0.6388
60 1 Ar 4.74170 2.51382 3.61065 -1 0 0 -1.6981 -0.0988 -0.4791
61 1 Ar 0.86952 1.12557 4.80302 0 0 -1 -0.6972 -2.0890 1.7811
62 1 Ar 1.45658 2.45721 1.02164 0 0 0 -1.7582 0.7023 1.4027
63 1 Ar 2.39520 2.68344 1.37298 0 0 0 0.6475 -0.4844 0.3417
64 1 Ar 3.18770 2.63465 0.68780 0 0 0 2.2559 -0.5136 1.3268
65 1 Ar 2.61861 2.01771 4.75698 0 0 0 -0.9118 -0.5842 -0.0514
66 1 Ar 2.95190 3.57725 2.95246 0 0 0 -1.4089 -1.4771 2.5964
67 1 Ar 2.11194 4.77567 3.70258 0 0 0 -0.4948 -0.8334 0.8445
68 1 Ar 0.05022 2.17889 2.54682 0 0 0 1.1930 2.6263 0.0929
69 1 Ar 1.64270 2.53065 4.01018 0 0 0 0.9265 -0.1162 0.7096
70 1 Ar 1.61114 4.55524 4.54581 0 0 0 1.5372 0.5248 1.2192
71 1 Ar 2.17403 1.69356 0.57407 0 0 1 1.3796 -1.5479 -0.2639
72 1 Ar 0.84071 0.26870 3.17232 0 1 0 -1.3457 2.3665 -0.9228
73 1 Ar 2.59611 4.77092 1.01711 0 -1 0 0.8326 0.5593 -1.6408
74 1 Ar 4.43646 1.25610 3.23222 0 0 -1 0.7226 1.0595 1.8045
75 1 Ar 4.89236 1.35736 0.04708 0 0 0 -1.1008 0.4789 -0.5971
76 1 Ar 4.66693 3.21453 2.98452 0 0 -1 -0.0053 0.3993 -0.4229
77 1 Ar 3.73439 0.34563 1.03367 0 0 0 0.5954 -0.8834 -0.8289
78 1 Ar 4.04906 0.64845 0.10676 0 0 0 -0.8789 0.9329 1.6208
79 1 Ar 0.52042 4.84649 1.82141 1 -1 0 0.2129 -0.8279 -1.7401
80 1 Ar 3.63942 2.74000 3.54445 0 0 0 1.2278 -0.4516 0.4085
81 1 Ar 3.42815 4.57085 3.35210 0 -1 0 -1.1165 2.0953 0.2856
82 1 Ar 4.58879 1.30106 2.28470 0 0 0 1.1044 0.9401 -2.5000
83 1 Ar 4.78477 4.66384 2.82598 0 -1 0 0.1878 0.6846 -0.5970
84 1 Ar 4.18302 0.03642 4.12275 0 0 0 -1.3459 -1.1228 1.9144
85 1 Ar 2.08907 3.08212 3.30183 0 0 -1 0.4984 -1.1110 0.0253
86 1 Ar 4.71048 3.63423 0.52401 0 0 0 -1.1591 -0.8874 -0.5120
87 1 Ar 4.74479 3.66456 1.85545 0 0 0 0.0347 1.1177 0.5639
88 1 Ar 4.54823 3.77780 4.54408 0 0 -1 -0.2146 2.0065 1.0116
89 1 Ar 1.44797 4.26516 0.60873 0 -1 0 -0.8349 -1.5920 -0.5887
90 1 Ar 4.80936 2.42255 1.65584 0 0 0 -0.2752 0.0978 0.5868
91 1 Ar 4.99583 0.43303 3.56012 0 0 0 1.0838 -0.1218 0.0775
92 1 Ar 1.61774 1.58394 1.62656 0 0 0 0.2424 1.4044 -2.6258
93 1 Ar 2.20851 2.03087 3.22885 0 0 0 -1.4062 -0.2553 0.7840
94 1 Ar 3.61888 4.36963 4.55496 0 0 0 -2.6603 -0.2993 -1.1663
95 1 Ar 0.91452 0.13671 0.16723 1 0 1 1.3551 0.0210 0.5959
96 1 Ar 3.28293 3.20593 1.99385 0 0 0 -0.3962 -2.3781 1.7946
97 1 Ar 4.05064 3.90322 3.74548 0 0 -1 -0.6805 0.4489 0.3732
98 1 Ar 4.74872 1.66088 4.11654 0 1 -1 0.2726 1.6042 0.1530
99 1 Ar 3.38242 4.05968 0.54491 0 0 0 0.7005 0.0796 -0.1384
100 1 Ar 3.15448 1.11191 4.80343 0 1 -1 -1.6921 0.9651 1.2647
101 1 Ar 2.00601 3.64013 2.01586 0 0 0 -0.2930 -0.2079 -0.1726
102 1 Ar 2.54837 4.39280 4.98881 0 0 -1 0.1758 -0.9695 -2.6980
103 1 Ar 2.84357 4.27660 2.06656 0 0 0 0.4088 1.3888 -0.2282
104 1 Ar 2.82855 3.90821 3.88152 0 0 0 -0.6921 -0.1746 -0.6841
105 1 Ar 0.37481 3.95568 2.94346 1 0 0 -0.4132 -1.2866 2.2771
106 1 Ar 2.90030 0.30041 4.23161 1 1 0 1.4614 -0.6627 -0.5738
107 1 Ar 3.23053 1.58341 2.94474 0 0 0 -0.3523 1.3181 -1.7753
108 1 Ar 3.06543 0.27125 1.92461 0 1 0 -0.1440 0.5982 -2.4255
ITEM: TIMESTEP
1560
ITEM: NUMBER OF ATOMS
108
ITEM: BOX BOUNDS pp pp pp
0.0000000000000000e+00 5.0387885741475218e+00
0.0000000000000000e+00 5.0387885741475218e+00
0.0000000000000000e+00 5.0387885741475218e+00
ITEM: ATOMS id type element x y z ix iy iz vx vy vz
1 1 Ar 1.27675 0.43187 4.19610 0 0 -1 0.2709 1.2100 0.3431
2 1 Ar 0.02213 0.51180 1.16269 0 0 0 -0.3573 -2.1693 -0.1181
3 1 Ar 0.27937 3.21297 1.21870 0 -1 0 -0.4042 1.5819 -1.3310
4 1 Ar 1.29127 0.49237 1.09389 0 0 0 -1.4666 0.4996 0.2506
5 1 Ar 3.95980 1.81187 0.69974 -1 0 0 -0.4072 0.7345 1.4430
6 1 Ar 2.78602 1.63550 1.87287 -1 0 0 0.0420 -0.3958 1.0852
7 1 Ar 1.30879 0.52273 2.12136 0 0 0 2.6152 0.0251 1.7724
8 1 Ar 3.93250 2.23998 2.65590 -1 0 0 -1.2093 0.3615 0.5489
9 1 Ar 0.38167 4.60098 3.90330 0 -1 0 1.9496 2.5270 0.1461
10 1 Ar 3.25016 0.16684 0.06104 0 0 1 -0.9433 -0.6449 0.8341
11 1 Ar 0.39282 4.23527 1.01771 0 -1 1 0.0321 1.2839 -0.0358
12 1 Ar 4.34483 4.64380 0.20085 -1 -1 1 1.9048 0.1929 -1.3886
13 1 Ar 3.56457 1.99484 4.63287 -1 0 -1 -2.8858 0.8678 -0.6545
14 1 Ar 0.08460 2.54507 0.62490 0 0 0 1.5708 0.1191 0.5499
15 1 Ar 0.77971 2.92810 2.35086 0 0 0 0.4613 -1.4406 -0.3021
16 1 Ar 4.44968 0.60850 1.93336 -1 1 0 1.0778 1.1257 0.4649
17 1 Ar 0.43760 1.60543 3.39109 0 0 0 -0.1209 -1.0904 -1.3163
18 1 Ar 1.75692 2.68504 2.35521 0 0 0 1.6154 -0.8675 -0.4184
19 1 Ar 1.65888 1.67794 2.26422 0 0 0 0.6703 0.4121 -0.4497
20 1 Ar 4.73199 2.79107 4.78249 -1 0 0 1.5252 -0.7954 -0.7492
21 1 Ar 0.30366 0.84668 2.36954 0 0 0 -0.7695 -1.2133 -0.3713
22 1 Ar 0.36120 2.54240 4.07817 0 0 0 -0.5729 1.1223 0.9411
23 1 Ar 0.54858 1.73351 1.66898 0 0 1 -0.2058 3.0591 0.9101
24 1 Ar 0.28578 3.49420 4.15777 0 0 0 0.6386 0.7809 0.0243
25 1 Ar 3.86627 3.37834 4.76487 -1 0 -1 -1.3528 0.0140 -0.8424
26 1 Ar 2.73782 2.80601 3.92310 0 0 -1 0.1240 -0.2495 -1.3990
27 1 Ar 0.92442 2.26807 4.83124 0 0 -1 -1.5209 1.0072 -0.9248
28 1 Ar 1.10915 3.91671 1.80575 0 0 0 3.0799 -0.0378 0.1115
29 1 Ar 4.58412 4.48056 1.29153 -1 0 0 1.3214 -0.2664 0.3298
30 1 Ar 4.77393 1.48278 1.15293 -1 1 0 -1.3491 2.0141 2.4538
31 1 Ar 1.71507 0.94797 3.24206 0 1 0 -1.0269 -1.3582 0.3550
32 1 Ar 3.71974 4.08898 1.63597 -1 0 0 0.1045 0.6899 1.4018
33 1 Ar 2.80827 2.36951 2.87843 -1 0 0 -1.6978 -1.4078 1.2372
34 1 Ar 0.82336 1.73865 0.68043 0 0 0 -0.5404 0.4072 1.6429
35 1 Ar 1.21411 3.90954 3.80443 0 0 0 -0.8960 -3.0257 -1.9912
36 1 Ar 0.57058 3.39999 0.28560 0 0 1 -0.9828 -2.0570 2.0427
37 1 Ar 4.00249 1.57885 3.78656 0 0 -1 0.1955 -0.0890 -0.6345
38 1 Ar 3.23056 1.01754 0.92487 0 0 0 0.7138 -1.9974 0.4005
39 1 Ar 1.78554 3.24518 0.84902 0 -1 0 -0.4426 -1.7330 -0.0880
40 1 Ar 2.10314 0.24175 0.23245 0 0 0 -1.8819 0.7517 0.9643
41 1 Ar 1.99845 4.82866 2.69132 0 -1 0 1.4317 -0.5264 -0.5136
42 1 Ar 4.08212 0.41817 3.15046 0 0 0 -0.5241 -1.3258 1.8349
43 1 Ar 4.01611 4.30755 2.56117 0 -1 0 -0.1587 1.9048 -1.0330
44 1 Ar 2.22044 0.68706 1.42325 0 0 0 -0.0407 0.5239 -0.2060
45 1 Ar 2.72116 1.29456 3.83089 0 0 0 -1.9011 -0.3599 -0.4438
46 1 Ar 2.28602 0.94032 2.42433 0 0 0 -0.9325 -0.9570 1.7170
47 1 Ar 1.57564 3.39408 4.74526 0 -1 0 -1.2989 2.3157 -0.2289
48 1 Ar 0.33415 4.62676 4.98702 0 -1 0 -0.2360 -0.6370 0.7169
49 1 Ar 1.85866 1.30851 4.58370 0 0 -1 0.2413 -1.9545 -0.5127
50 1 Ar 2.68891 3.26951 0.31626 0 0 0 -0.0568 -0.6626 -2.0673
51 1 Ar 4.00974 2.80205 1.07179 0 0 0 -1.6107 0.2892 -0.0836
52 1 Ar 3.58777 2.18811 1.70320 0 0 0 -0.1785 -0.6477 -0.8542
53 1 Ar 1.86405 4.64821 1.36037 0 -1 0 2.2182 1.1733 -1.6512
54 1 Ar 3.64421 1.12559 1.83362 0 0 0 0.5911 0.7473 -0.6096
55 1 Ar 2.82387 3.63333 1.27397 0 -1 0 -0.1738 0.4996 0.7847
56 1 Ar 1.50889 3.68624 2.79378 0 0 0 0.4910 0.8607 -0.4185
57 1 Ar 1.27298 1.79536 3.98880 0 0 0 1.4445 -0.2747 -0.6014
58 1 Ar 1.09546 2.79611 3.32766 0 0 0 1.1713 -2.3380 0.2229
59 1 Ar 4.88910 0.55656 4.71989 -1 0 0 0.2688 1.6781 1.6351
60 1 Ar 4.52785 2.48068 3.52138 -1 0 0 -0.5576 -1.2804 0.7870
61 1 Ar 0.70168 0.95416 4.91561 0 0 -1 0.4126 0.0223 -1.5192
62 1 Ar 1.11395 2.59446 1.33755 0 0 0 -1.4894 -0.6649 2.1862
63 1 Ar 2.43544 2.63879 1.58194 0 0 0 0.2354 -0.8884 0.5836
64 1 Ar 3.02151 2.17759 0.68320 0 0 0 -0.8713 -3.7520 0.7422
65 1 Ar 2.55656 2.20343 4.86469 0 0 0 0.6510 1.0852 1.2117
66 1 Ar 3.12631 3.51047 3.00685 0 0 0 1.2201 1.4054 0.9789
67 1 Ar 2.10471 4.83217 3.61088 0 0 0 0.8241 1.7725 -0.2190
68 1 Ar 0.07244 2.35922 2.71675 0 0 0 0.3860 -0.5711 1.4136
69 1 Ar 1.87545 2.51661 4.23406 0 0 0 0.0376 -0.3442 0.9035
70 1 Ar 1.71760 4.49239 4.46578 0 0 0 0.8968 -0.5498 0.0866
71 1 Ar 2.16480 1.33953 0.42415 0 0 1 -0.6264 -1.8856 2.1142
72 1 Ar 1.08081 0.04560 2.93592 0 1 0 -1.2627 -1.9419 0.9313
73 1 Ar 2.70273 4.67329 0.84964 0 -1 0 -0.2623 -0.3249 1.6065
74 1 Ar 4.61008 1.35332 2.92344 0 0 -1 0.7024 -0.1484 -3.1940
75 1 Ar 4.94805 1.46829 0.14249 0 0 0 1.2058 1.5947 1.0789
76 1 Ar 4.47818 3.19524 2.79754 0 0 -1 -1.0107 -1.4029 -1.0934
77 1 Ar 3.95706 0.25052 0.98461 0 0 0 -0.0895 2.3818 0.4752
78 1 Ar 3.94232 0.90293 0.18430 0 0 0 0.4360 0.7088 -0.6439
79 1 Ar 0.53975 4.82008 1.96062 1 -1 0 -0.9253 0.6227 1.9304
80 1 Ar 3.70380 2.87053 3.72228 0 0 0 0.7029 1.1776 0.5998
81 1 Ar 3.27170 4.78611 2.95111 0 -1 0 -0.8042 0.3844 -2.2473
82 1 Ar 4.49452 1.66022 2.07606 0 0 0 -1.8514 0.4472 -1.3219
83 1 Ar 4.86313 4.90320 2.70722 0 -1 0 2.3114 1.1569 -0.9646
84 1 Ar 4.14819 0.04150 4.31961 0 0 0 0.1892 0.8410 -0.5165
85 1 Ar 1.99865 2.95200 3.31589 0 0 -1 0.5072 -1.8717 -1.8357
86 1 Ar 4.64528 3.67406 0.51305 0 0 0 1.1082 2.3212 -0.0691
87 1 Ar 4.87867 3.69463 1.93426 0 0 0 0.2510 1.5006 0.7992
88 1 Ar 4.63014 4.17005 4.46665 0 0 -1 -2.3799 1.3189 -1.5898
89 1 Ar 1.48700 4.17902 0.51045 0 -1 0 0.3585 0.1722 -0.1157
90 1 Ar 4.87518 2.54711 1.75040 0 0 0 0.4988 1.4395 -0.2734
91 1 Ar 5.01631 0.43017 3.55877 0 0 0 0.9993 0.4620 0.2158
92 1 Ar 1.71889 1.74827 1.27800 0 0 0 -0.8491 0.5517 -2.5166
93 1 Ar 1.95739 1.95814 3.27347 0 0 0 -0.1968 0.9550 0.5941
94 1 Ar 3.46823 4.23486 4.18509 0 0 0 -0.6577 -1.2212 -1.3491
95 1 Ar 1.16288 0.08162 0.11558 1 0 1 1.3448 0.0593 -0.5006
96 1 Ar 3.46616 3.17942 2.10971 0 0 0 1.9845 -1.2127 0.6675
97 1 Ar 4.02474 3.77057 3.46220 0 0 -1 0.3860 -0.4689 -0.1560
98 1 Ar 4.85862 1.57626 4.23126 0 1 -1 0.1617 -1.2871 -1.4967
99 1 Ar 3.46445 3.99509 0.54790 0 0 0 1.3473 -1.7291 -2.8335
100 1 Ar 2.97957 1.15380 4.88822 0 1 -1 -0.3342 -0.1169 -2.4392
101 1 Ar 2.05439 3.53022 1.87511 0 0 0 -0.7768 1.7045 0.2016
102 1 Ar 2.62243 4.24611 4.92781 0 0 -1 0.9405 -1.1865 1.6297
103 1 Ar 2.76022 4.46076 2.22160 0 0 0 -0.5015 -1.1846 -0.2681
104 1 Ar 2.24697 3.72460 3.78297 0 0 0 -3.1042 0.6735 0.1668
105 1 Ar 0.46076 3.82937 2.98962 1 0 0 -1.1220 1.4784 -0.9249
106 1 Ar 3.11131 0.42327 4.10948 1 1 0 -0.4767 1.8336 -0.6513
107 1 Ar 3.29242 1.10560 2.74781 0 0 0 0.4832 -2.7293 1.8744
108 1 Ar 3.15844 0.18454 1.69205 0 1 0 -0.0581 -1.5654 0.0347
ITEM: TIMESTEP
1600
ITEM: NUMBER OF ATOMS
108
ITEM: BOX BOUNDS pp pp pp
0.0000000000000000e+00 5.0387885741475218e+00
0.0000000000000000e+00 5.0387885741475218e+00
0.0000000000000000e+00 5.0387885741475218e+00
ITEM: ATOMS id type element x y z ix iy iz vx vy vz
1 1 Ar 1.30948 0.39357 4.16841 0 0 -1 -0.8684 0.7566 -0.8590
2 1 Ar 0.09018 0.23309 0.86651 0 0 0 -1.4513 1.0861 -2.5257
3 1 Ar 0.32034 3.61536 1.33529 0 -1 0 -0.7779 1.1784 -1.0413
4 1 Ar 1.03850 0.62648 1.11775 0 0 0 1.0349 -0.0843 0.9876
5 1 Ar 3.93382 1.93329 0.65029 -1 0 0 0.1752 0.8786 -0.6836
6 1 Ar 2.51966 1.54725 2.05125 -1 0 0 -1.1031 -0.4408 -0.0502
7 1 Ar 1.52463 0.49235 2.14449 0 0 0 1.1731 -2.0005 -0.6711
8 1 Ar 3.79407 2.23320 2.97619 -1 0 0 -0.6684 -1.8664 -0.9898
9 1 Ar 0.60696 4.61016 4.19273 0 -1 0 -0.0160 -1.3197 -0.4184
10 1 Ar 3.32092 0.07213 4.99033 0 0 0 1.0195 -0.8018 -2.5593
11 1 Ar 0.87194 4.61917 0.88066 0 -1 1 2.2471 0.2003 0.1548
12 1 Ar 4.26813 4.99431 0.31615 -1 -1 1 -0.6514 0.1242 0.9731
13 1 Ar 3.52837 2.21995 4.38988 -1 0 -1 1.4784 0.9261 -0.8701
14 1 Ar 0.10139 2.64431 0.86913 0 0 0 -0.3159 1.3157 -0.0318
15 1 Ar 0.72977 3.12328 2.45995 0 0 0 -1.1721 2.9097 0.1742
16 1 Ar 4.48054 0.48374 2.10015 -1 1 0 0.3419 -1.0632 1.1007
17 1 Ar 0.70533 1.40106 3.06439 0 0 0 0.9697 2.2284 -0.3343
18 1 Ar 1.74111 2.43684 2.20324 0 0 0 -1.5398 -2.9042 0.2795
19 1 Ar 1.46053 1.47614 2.16134 0 0 0 -2.4372 -1.1313 -1.5549
20 1 Ar 4.66968 2.77241 4.82432 -1 0 0 -0.4924 0.0043 0.5169
21 1 Ar 0.55303 0.76762 2.32186 0 0 0 -1.5110 -1.0010 -1.7707
22 1 Ar 0.38653 2.47952 4.03719 0 0 0 0.4916 0.0137 0.8884
23 1 Ar 0.53172 1.76959 2.08936 0 0 1 0.5398 -1.0458 0.1512
24 1 Ar 0.20299 3.68394 4.29116 0 0 0 -1.0004 -2.4437 -1.0431
25 1 Ar 3.71145 3.25113 4.68796 -1 0 -1 -0.2881 -0.4531 0.5648
26 1 Ar 2.67775 2.67114 4.01984 0 0 -1 -1.3523 -0.4879 0.8122
27 1 Ar 0.87446 2.24415 0.00784 0 0 0 0.0144 -1.1900 1.3596
28 1 Ar 1.20852 3.98190 1.77228 0 0 0 2.1285 -0.5553 0.3563
29 1 Ar 4.56655 4.67169 1.42114 -1 0 0 1.3212 2.0199 -0.2223
30 1 Ar 4.93191 1.41399 1.30020 -1 1 0 -0.0906 -1.3960 1.7712
31 1 Ar 1.47879 0.81811 3.11856 0 1 0 0.0555 -0.9594 -1.5275
32 1 Ar 3.78331 4.01612 1.50368 -1 0 0 1.2395 -2.4829 -0.5982
33 1 Ar 2.70711 2.05426 2.84898 -1 0 0 -0.1783 -0.2629 0.6392
34 1 Ar 0.82059 1.50894 0.84184 0 0 0 0.4012 0.2544 0.8956
35 1 Ar 0.97380 3.30949 3.48166 0 0 0 -0.9461 -2.4046 -0.4340
36 1 Ar 0.59096 3.27912 0.17482 0 0 1 -1.3885 0.5718 0.6154
37 1 Ar 3.67859 1.49350 3.73278 0 0 -1 -1.4217 0.6852 3.3059
38 1 Ar 3.04562 0.62690 0.75276 0 0 0 -0.4363 -2.1565 -0.1858
39 1 Ar 1.87703 3.00924 0.69828 0 -1 0 1.5929 -0.0616 -2.3318
40 1 Ar 2.27562 5.03559 0.41220 0 -1 0 0.3313 -2.2661 1.3050
41 1 Ar 2.05720 4.74636 2.43927 0 -1 0 0.7198 0.0075 -0.8578
42 1 Ar 4.08567 0.16082 3.29677 0 0 0 -0.3043 -0.9123 1.4837
43 1 Ar 4.01972 4.68519 2.46215 0 -1 0 -2.7118 2.2609 -2.4850
44 1 Ar 2.34176 0.65341 1.66713 0 0 0 1.7731 -0.7547 1.0836
45 1 Ar 2.56169 1.29077 3.66112 0 0 0 0.9217 -0.9736 -0.4200
46 1 Ar 2.39662 0.68374 2.73695 0 0 0 -2.6224 -0.0928 0.3196
47 1 Ar 1.41103 3.64360 4.55089 0 -1 0 0.0853 1.8035 -1.9925
48 1 Ar 0.25813 4.38883 0.02958 0 -1 1 -0.4226 0.9007 3.3880
49 1 Ar 1.96935 0.92858 4.55856 0 0 -1 0.7023 -1.2459 -0.8886
50 1 Ar 2.76622 3.17313 5.02989 0 0 -1 0.2448 -0.6536 -1.7136
51 1 Ar 3.88599 3.17718 0.90715 0 0 0 0.7555 0.5600 -0.2963
52 1 Ar 3.51784 2.17767 1.62836 0 0 0 1.8936 -0.7038 0.5823
53 1 Ar 1.71328 4.85581 1.47122 0 -1 0 -1.3508 0.1800 -0.1399
54 1 Ar 3.48591 1.10213 1.73715 0 0 0 -1.2166 0.9776 -0.0639
55 1 Ar 2.91882 3.40094 0.92956 0 -1 0 0.2584 -1.0208 -3.1572
56 1 Ar 1.52229 3.98233 2.70253 0 0 0 -1.1140 0.7726 0.5812
57 1 Ar 1.08497 1.64161 3.97868 0 0 0 0.1487 0.6492 -1.2793
58 1 Ar 1.04641 2.43827 3.09917 0 0 0 -1.6029 -0.5575 -1.7243
59 1 Ar 0.03029 0.55297 4.91235 0 0 0 2.6038 -0.6937 0.1811
60 1 Ar 4.45961 2.05298 3.72310 -1 0 0 0.0978 -1.1575 1.6287
61 1 Ar 0.97049 1.24939 4.99217 0 0 -1 0.6012 -0.5281 2.6222
62 1 Ar 0.95577 2.76713 1.37686 0 0 0 -1.3133 0.9594 0.3846
63 1 Ar 2.51054 2.70861 1.41930 0 0 0 -0.5775 1.6723 -0.0989
64 1 Ar 2.79251 1.66240 1.07841 0 0 0 -0.2993 -2.0821 0.6638
65 1 Ar 2.28835 2.03210 0.03787 0 0 1 -1.9825 -1.7758 0.8075
66 1 Ar 3.13103 3.77174 3.12970 0 0 0 0.0664 1.0618 -0.5690
67 1 Ar 2.21961 0.20082 3.75649 0 1 0 -1.1554 1.3795 -0.1460
68 1 Ar 0.04517 2.24716 2.96690 0 0 0 0.0182 -0.6771 3.2633
69 1 Ar 1.55990 2.68105 4.28195 0 0 0 -1.8725 0.1296 -0.8806
70 1 Ar 1.80601 4.69774 4.62797 0 0 0 0.8412 1.2672 0.4547
71 1 Ar 1.98304 1.19786 0.43625 0 0 1 -3.3532 -0.6458 -0.0592
72 1 Ar 0.99386 4.83567 3.01075 0 0 0 2.6685 1.1913 -0.7429
73 1 Ar 3.07931 4.52958 1.00470 0 -1 0 0.4940 0.1040 0.6202
74 1 Ar 4.49692 1.09422 2.95663 0 0 -1 -0.9099 -0.7575 0.6858
75 1 Ar 4.89882 1.67485 5.02911 0 0 -1 -1.0632 1.6629 1.3574
76 1 Ar 4.58268 3.00886 2.69422 0 0 -1 0.9114 -0.2900 0.3649
77 1 Ar 4.11283 0.57034 1.11503 0 0 0 0.0478 2.7400 0.6376
78 1 Ar 3.91809 1.13865 5.01054 0 0 -1 -0.1277 0.8823 -0.7932
79 1 Ar 0.68671 4.99523 1.84402 1 -1 0 -0.0736 1.4288 -0.5158
80 1 Ar 3.88635 3.03077 3.58099 0 0 0 0.8840 3.3743 -0.3600
81 1 Ar 2.94054 4.87270 2.91397 0 -1 0 -0.7329 -2.2307 0.8380
82 1 Ar 4.37233 1.98968 2.21538 0 0 0 0.7218 0.3318 0.4628
83 1 Ar 5.02568 0.02822 2.91533 0 0 0 1.6976 -0.4626 -1.0584
84 1 Ar 4.07702 0.28124 4.46930 0 0 0 1.1028 1.7517 1.2698
85 1 Ar 2.25080 3.25817 3.07581 0 0 -1 0.7539 1.2199 -1.1949
86 1 Ar 4.72125 3.84570 0.55924 0 0 0 -0.2575 -1.2638 1.8365
87 1 Ar 4.76774 3.96956 2.10986 0 0 0 -0.6026 -0.5763 0.1100
88 1 Ar 4.30821 4.30191 4.35587 0 0 -1 -1.3932 1.0877 1.5995
89 1 Ar 1.74433 4.13065 0.51521 0 -1 0 2.9198 -1.0932 0.2668
90 1 Ar 4.77509 2.87904 1.72437 0 0 0 -1.1937 1.9458 0.4343
91 1 Ar 0.21079 0.56864 3.67761 1 0 0 2.1436 -1.4731 1.9026
92 1 Ar 1.82304 2.05661 1.23761 0 0 0 0.5986 0.6834 0.4767
93 1 Ar 1.84584 1.74834 3.03811 0 0 0 0.3975 -2.8476 -1.1533
94 1 Ar 3.15104 4.16575 4.05625 0 0 0 -1.6019 0.4910 0.4339
95 1 Ar 1.02481 0.15602 0.11762 1 0 1 -0.9143 2.1317 -0.1061
96 1 Ar 3.57939 3.11853 2.02623 0 0 0 -0.5434 1.4981 -0.6088
97 1 Ar 4.33989 3.84656 3.07741 0 0 -1 1.0351 0.7129 -1.8432
98 1 Ar 0.05706 1.46138 4.06617 1 1 -1 2.3351 -0.0079 -1.8453
99 1 Ar 3.73146 4.04570 0.42209 0 0 0 0.2901 2.5209 -0.5678
100 1 Ar 2.99485 1.22601 4.74247 0 1 -1 0.6336 0.6322 0.0111
101 1 Ar 2.06046 3.43587 1.83360 0 0 0 -0.2213 0.5267 -1.4016
102 1 Ar 2.66036 4.22770 5.03060 0 0 -1 0.0775 0.4285 -0.1558
103 1 Ar 2.87803 4.22444 2.14477 0 0 0 0.4057 -0.4755 1.1853
104 1 Ar 2.13358 3.96513 3.85293 0 0 0 0.3971 1.3438 0.2237
105 1 Ar 0.29953 4.03046 3.05871 1 0 0 -0.7654 -0.8099 1.9848
106 1 Ar 3.24444 0.41188 3.89759 1 1 0 1.5882 -0.2835 0.2200
107 1 Ar 3.37971 0.83180 2.95578 0 0 0 1.0272 -0.5941 -3.2946
108 1 Ar 3.27730 0.13356 1.89517 0 1 0 0.9881 -0.0055 1.8987
ITEM: TIMESTEP
1640
ITEM: NUMBER OF ATOMS
108
ITEM: BOX BOUNDS pp pp pp
0.0000000000000000e+00 5.0387885741475218e+00
0.0000000000000000e+00 5.0387885741475218e+00
0.0000000000000000e+00 5.0387885741475218e+00
ITEM: ATOMS id type element x y z ix iy iz vx vy vz
1 1 Ar 1.23096 0.42744 4.30468 0 0 -1 -1.6049 -0.5831 1.6336
2 1 Ar 0.24045 0.72728 0.75864 0 0 0 1.0141 2.6182 -1.2051
3 1 Ar 0.26737 3.80093 1.21544 0 -1 0 -1.4081 -0.1469 -0.5184
4 1 Ar 0.97105 0.36569 1.30695 0 0 0 -1.3646 -2.1527 -0.2684
5 1 Ar 3.86210 1.87717 0.57498 -1 0 0 -1.6707 -1.1502 1.0107
6 1 Ar 2.37174 1.55372 2.05728 -1 0 0 0.4414 -0.6232 -0.8232
7 1 Ar 1.37930 0.21506 2.23314 0 0 0 0.1469 -0.7960 0.8481
8 1 Ar 3.85832 1.90687 3.00847 -1 0 0 -0.3684 -1.3586 2.2918
9 1 Ar 0.60742 4.55487 4.12150 0 -1 0 -0.6219 2.1568 1.0955
10 1 Ar 3.20645 5.01399 4.86834 0 -1 0 -0.5803 0.6298 1.4922
11 1 Ar 1.14061 4.27813 0.76544 0 -1 1 1.0729 -2.3435 -0.3050
12 1 Ar 4.19754 0.11341 0.52376 -1 0 1 -1.3553 1.8950 -0.0584
13 1 Ar 3.44659 2.49500 4.67682 -1 0 -1 -1.6162 0.1582 2.5966
14 1 Ar 4.95882 2.67344 0.84577 -1 0 0 -0.2238 0.7333 1.5357
15 1 Ar 0.53765 3.55069 2.34903 0 0 0 0.6882 -0.3103 0.2649
16 1 Ar 4.32060 0.52717 2.14795 -1 1 0 -1.5812 0.1158 -0.3543
17 1 Ar 0.54341 1.44793 2.96563 0 0 0 -0.0499 0.2529 -0.4802
18 1 Ar 1.72706 2.40367 2.02686 0 0 0 0.1558 2.1557 -1.3910
19 1 Ar 1.31165 1.32186 1.79450 0 0 0 -0.0150 -0.0810 -0.4290
20 1 Ar 4.57694 2.80901 4.86112 -1 0 0 -0.7821 0.0490 0.2631
21 1 Ar 0.44244 0.76031 2.19157 0 0 0 1.6523 -2.6800 -0.5466
22 1 Ar 0.38163 2.33574 4.31616 0 0 0 -0.3081 -1.7563 1.8998
23 1 Ar 0.59142 2.20486 2.18501 0 0 1 1.0498 2.6726 2.1285
24 1 Ar 4.91800 3.36825 4.06313 -1 0 0 -1.0000 0.1885 -0.9573
25 1 Ar 3.84481 3.52959 4.76398 -1 0 -1 0.3943 1.5314 0.4433
26 1 Ar 2.23739 2.35169 3.84818 0 0 -1 -2.5869 -1.7180 0.6400
27 1 Ar 0.86673 2.36717 0.24828 0 0 0 0.3719 2.1509 1.1408
28 1 Ar 1.32367 4.02065 1.91405 0 0 0 1.3679 -0.7621 2.6682
29 1 Ar 4.61064 4.83321 1.39258 -1 0 0 -1.4113 0.9900 -0.9256
30 1 Ar 4.89057 1.27984 1.50477 -1 1 0 -0.8767 1.7909 -0.3514
31 1 Ar 1.32591 0.66168 3.25206 0 1 0 -0.4554 -0.5698 -0.2395
32 1 Ar 3.99305 4.01798 1.35320 -1 0 0 -0.7780 -0.1010 -1.4687
33 1 Ar 2.68371 2.22845 2.90649 -1 0 0 0.5105 0.2991 -3.3970
34 1 Ar 0.65136 1.91250 1.12786 0 0 0 -2.0496 1.5103 -1.8552
35 1 Ar 0.81144 3.19087 3.68649 0 0 0 -2.2519 -0.8065 2.9175
36 1 Ar 0.50460 3.55983 0.15720 0 0 1 0.0996 1.5985 -0.6623
37 1 Ar 3.71608 1.35281 4.01503 0 0 -1 0.9325 1.1633 -0.2917
38 1 Ar 3.22840 0.46543 0.72580 0 0 0 -0.0545 -1.2404 -0.9745
39 1 Ar 1.90048 2.83913 0.32275 0 -1 0 -1.3068 -0.5366 -0.4186
40 1 Ar 2.25887 0.07612 0.43284 0 0 0 0.7646 1.4229 -1.2687
41 1 Ar 2.30383 4.53713 2.49556 0 -1 0 1.6072 -1.6618 2.7080
42 1 Ar 4.08759 5.00503 3.49096 0 -1 0 -4.0029 0.7774 -0.1089
43 1 Ar 3.96291 4.52675 2.23809 0 -1 0 -0.5656 0.3178 0.5601
44 1 Ar 2.11483 0.67280 1.44177 0 0 0 -1.9848 -0.2293 1.1238
45 1 Ar 2.55849 1.19045 3.52924 0 0 0 -0.4494 0.5216 -0.4258
46 1 Ar 2.49662 0.64206 2.57620 0 0 0 1.1417 -1.0062 -1.8532
47 1 Ar 1.35591 3.83098 4.43891 0 -1 0 1.1749 -1.0711 0.8242
48 1 Ar 0.00961 4.66711 0.30457 0 -1 1 -1.0851 1.1168 -0.1512
49 1 Ar 2.15300 0.87450 4.55997 0 0 -1 1.3725 0.4460 1.2530
50 1 Ar 2.70464 3.11438 4.61090 0 0 -1 0.0658 0.4624 -2.2507
51 1 Ar 3.83806 3.01071 0.84792 0 0 0 -1.2838 1.2718 -0.7809
52 1 Ar 3.79527 2.29577 1.62260 0 0 0 1.6797 0.6034 -0.9608
53 1 Ar 2.00452 4.61443 1.50078 0 -1 0 2.1104 -0.7998 -0.5548
54 1 Ar 3.25875 1.33218 1.74249 0 0 0 -0.6494 0.8596 -0.6713
55 1 Ar 3.02552 3.46479 0.77703 0 -1 0 -0.9222 -1.3142 1.8744
56 1 Ar 1.39973 3.61175 2.98259 0 0 0 0.6115 -2.4340 -0.2867
57 1 Ar 1.61147 1.63817 3.93033 0 0 0 2.6218 -1.6929 0.4440
58 1 Ar 0.98956 2.50290 2.95704 0 0 0 0.0895 0.7883 1.0127
59 1 Ar 0.37475 0.59164 4.66785 0 0 0 0.4961 -1.6991 0.4523
60 1 Ar 4.40636 2.05921 4.15552 -1 0 0 0.4121 -0.3789 2.6064
61 1 Ar 1.00586 1.45133 4.76691 0 0 -1 1.8997 3.1023 -1.0350
62 1 Ar 0.94257 2.90053 1.57201 0 0 0 0.3308 1.3190 0.4149
63 1 Ar 2.82092 2.48436 1.54402 0 0 0 0.3538 -1.5102 0.2960
64 1 Ar 2.67985 1.43082 0.81766 0 0 0 0.2606 0.3567 -1.5192
65 1 Ar 1.94847 1.86753 0.03679 0 0 1 -1.8163 -2.1361 -1.2060
66 1 Ar 3.33686 3.72894 3.02700 0 0 0 0.5586 -0.6864 -0.6723
67 1 Ar 2.12259 0.16505 3.52608 0 1 0 -0.6432 -0.1858 -0.8337
68 1 Ar 4.98799 2.13396 3.31113 -1 0 0 -1.6354 1.4219 0.7306
69 1 Ar 1.48903 2.73311 4.32769 0 0 0 0.8641 0.9073 2.6440
70 1 Ar 2.01721 4.79057 4.55417 0 0 0 2.0467 -0.6321 -1.6764
71 1 Ar 1.77765 1.05022 0.61140 0 0 1 -1.5318 0.3232 -3.4814
72 1 Ar 1.16937 4.63196 3.01129 0 0 0 -0.3959 -2.2485 2.0858
73 1 Ar 2.98881 4.50104 1.15135 0 -1 0 -1.4714 -0.7690 -1.9206
74 1 Ar 4.47893 1.11431 3.24123 0 0 -1 1.2092 0.2838 2.0336
75 1 Ar 4.98388 1.79723 0.23340 0 0 0 1.8989 -1.4467 0.2062
76 1 Ar 4.61034 3.00643 2.91736 0 0 -1 -0.2042 0.8846 1.0211
77 1 Ar 3.99415 0.98836 1.04949 0 0 0 0.4064 2.4712 -0.2050
78 1 Ar 4.09239 1.19665 4.93914 0 0 -1 0.9680 -2.3910 -1.6273
79 1 Ar 0.50229 4.69019 1.74395 1 -1 0 0.2537 -1.8736 -0.3291
80 1 Ar 4.01245 3.35779 3.85311 0 0 0 -0.7218 -1.1389 2.3275
81 1 Ar 3.00110 4.78934 3.16345 0 -1 0 0.9775 -0.9251 -2.6808
82 1 Ar 4.50439 1.93262 2.23389 0 0 0 1.2501 -0.6370 -0.2829
83 1 Ar 0.18342 4.78043 2.63646 1 -1 0 -0.1214 -1.0717 -1.0739
84 1 Ar 4.32808 0.66618 4.17225 0 0 0 -0.2940 1.5532 -0.8503
85 1 Ar 2.33515 3.27775 2.78470 0 0 -1 1.5871 -0.7359 -1.5337
86 1 Ar 4.55681 3.76509 0.53433 0 0 0 -0.6388 -0.2059 -2.3393
87 1 Ar 4.74932 4.08139 2.12775 0 0 0 0.7370 0.5420 -0.0852
88 1 Ar 4.19700 4.51609 4.47591 0 0 -1 1.0114 1.7304 -0.5889
89 1 Ar 2.03383 3.86344 0.79102 0 -1 0 1.1845 -1.0455 2.1034
90 1 Ar 4.45992 3.07236 1.64444 0 0 0 -0.4846 0.7368 0.8982
91 1 Ar 0.02986 0.12037 3.51190 1 0 0 1.0151 -1.3074 -2.3717
92 1 Ar 1.81994 1.98924 1.06639 0 0 0 0.9478 0.6269 -1.4578
93 1 Ar 1.81605 1.63831 2.92299 0 0 0 -0.7323 0.9309 -1.1669
94 1 Ar 3.32031 4.27832 3.98745 0 0 0 2.0527 -0.8233 -0.6040
95 1 Ar 1.25379 0.10174 0.22862 1 0 1 0.8363 0.1754 1.1201
96 1 Ar 3.44750 3.05976 2.20100 0 0 0 0.0478 -1.6993 1.8484
97 1 Ar 4.37266 4.06639 3.23120 0 0 -1 0.9936 -1.8603 0.5069
98 1 Ar 0.36494 1.35735 3.96960 1 1 -1 0.3068 -0.4551 -0.7102
99 1 Ar 3.63219 4.29008 0.43737 0 0 0 0.1701 2.7257 2.4234
100 1 Ar 2.94726 1.45946 4.91927 0 1 -1 0.8104 1.7896 1.7941
101 1 Ar 2.22846 3.58438 1.77133 0 0 0 0.5747 -0.3637 -0.6977
102 1 Ar 2.58447 4.10200 4.89193 0 0 -1 -1.8569 0.0008 -1.6936
103 1 Ar 3.13921 4.03968 2.01254 0 0 0 1.7213 -0.0062 0.2304
104 1 Ar 2.12257 4.24690 3.62009 0 0 0 -0.1587 0.0997 -1.9321
105 1 Ar 0.26039 4.00736 3.28758 1 0 0 0.0837 -0.3719 -0.8688
106 1 Ar 3.20079 0.42833 3.92220 1 1 0 -0.3254 1.3847 0.6967
107 1 Ar 3.60362 0.79539 2.77093 0 0 0 0.1758 -0.0045 2.4729
108 1 Ar 3.25130 0.16229 1.85875 0 1 0 -1.2830 1.9204 -0.9048
ITEM: TIMESTEP
1680
ITEM: NUMBER OF ATOMS
108
ITEM: BOX BOUNDS pp pp pp
0.0000000000000000e+00 5.0387885741475218e+00
0.0000000000000000e+00 5.0387885741475218e+00
0.0000000000000000e+00 5.0387885741475218e+00
ITEM: ATOMS id type element x y z ix iy iz vx vy vz
1 1 Ar 1.19182 0.28976 4.36598 0 0 -1 -1.1218 -1.0792 0.6257
2 1 Ar 0.47909 0.87736 0.74376 0 0 0 0.5321 0.3715 1.2860
3 1 Ar 0.05989 3.72407 1.15735 0 -1 0 -1.6440 0.7923 0.7568
4 1 Ar 1.08098 0.25622 1.24014 0 0 0 1.3212 -1.4713 -0.2224
5 1 Ar 3.48503 1.93939 0.73385 -1 0 0 -1.1770 0.1363 1.5988
6 1 Ar 2.15677 1.51365 1.85136 -1 0 0 -1.0288 0.5699 -0.5496
7 1 Ar 1.57059 5.00576 2.53335 0 -1 0 0.3616 -0.8242 2.4261
8 1 Ar 3.76632 2.01111 2.97266 -1 0 0 -0.6339 0.1121 -0.2822
9 1 Ar 0.51666 4.62305 4.45538 0 -1 0 -1.4741 -1.1912 1.0764
10 1 Ar 3.12294 4.88750 4.71336 0 -1 0 0.4111 -1.7687 -0.0880
11 1 Ar 0.90359 4.04241 0.67500 0 -1 1 -1.4711 -0.3150 -2.1733
12 1 Ar 4.32957 0.37637 0.33547 -1 0 1 2.2482 0.2115 -1.3737
13 1 Ar 3.39505 2.80520 4.89046 -1 0 -1 -0.7622 -0.4846 -0.7874
14 1 Ar 4.86013 2.62646 0.95481 -1 0 0 0.0852 -2.8050 0.2002
15 1 Ar 0.55553 3.26949 2.43889 0 0 0 -0.4279 0.2534 0.6868
16 1 Ar 4.19474 0.81361 2.03803 -1 1 0 0.0239 2.6158 0.4345
17 1 Ar 0.58301 1.52545 2.65247 0 0 0 -0.6174 0.5759 -1.8004
18 1 Ar 1.78769 2.61754 2.02188 0 0 0 -1.0146 -1.1375 1.1042
19 1 Ar 1.08259 1.42996 1.75142 0 0 0 -1.9081 0.6142 -0.2300
20 1 Ar 4.58549 2.83079 4.94978 -1 0 0 -0.0978 0.2782 -0.2078
21 1 Ar 0.57127 0.56964 2.06947 0 0 0 -0.0949 1.0580 0.0836
22 1 Ar 0.23716 2.50309 4.42397 0 0 0 0.1630 0.6107 -1.0449
23 1 Ar 0.53524 2.34347 2.07026 0 0 1 0.2471 -1.2846 -2.2659
24 1 Ar 4.52718 3.61242 4.18208 -1 0 0 -2.6048 1.2623 1.1787
25 1 Ar 3.39148 3.72510 4.86899 -1 0 -1 -0.4779 1.7366 0.3414
26 1 Ar 2.24901 2.25180 3.65814 0 0 -1 -0.1985 -1.3103 -2.1404
27 1 Ar 0.75912 2.92448 0.41724 0 0 0 -1.4106 2.6078 0.7204
28 1 Ar 1.30039 3.87835 2.22713 0 0 0 -0.6076 -2.6548 1.6217
29 1 Ar 4.45642 4.94356 1.31166 -1 0 0 -0.5010 -0.1626 0.3180
30 1 Ar 4.96362 1.43720 1.56489 -1 1 0 0.9391 0.0030 1.4804
31 1 Ar 1.00946 0.64489 3.14912 0 1 0 -0.0029 -0.1408 -0.9563
32 1 Ar 3.95894 3.84987 1.31495 -1 0 0 0.5395 -0.3325 -0.4254
33 1 Ar 2.77344 2.02103 2.47182 -1 0 0 0.0812 -1.9607 0.4040
34 1 Ar 0.72787 2.08568 1.06865 0 0 0 2.3903 1.1670 -0.5702
35 1 Ar 0.74743 3.32459 4.10113 0 0 0 1.6560 2.2608 -0.6688
36 1 Ar 0.54335 3.76100 4.85702 0 0 0 -0.7513 1.1569 -1.2335
37 1 Ar 3.49907 1.60818 3.88857 0 0 -1 0.3066 1.9149 -1.8735
38 1 Ar 3.20208 0.61140 0.62474 0 0 0 0.9039 0.7319 -3.0918
39 1 Ar 2.09812 2.90834 0.56220 0 -1 0 2.2981 -0.5049 0.6922
40 1 Ar 2.17411 0.14082 0.43055 0 0 0 -1.7437 -1.1939 1.2083
41 1 Ar 2.26445 4.07951 2.47027 0 -1 0 -1.0027 -3.2155 -0.5298
42 1 Ar 3.96296 5.03594 3.57637 0 -1 0 -0.5054 1.2705 0.7734
43 1 Ar 4.10387 4.83388 2.49438 0 -1 0 2.0428 0.9868 0.6360
44 1 Ar 1.94741 0.63676 1.50300 0 0 0 0.1573 -0.2010 -1.2401
45 1 Ar 2.58242 1.42316 3.28286 0 0 0 -0.7013 2.0650 -2.0265
46 1 Ar 2.48330 0.58663 2.37730 0 0 0 -0.6855 1.8939 -2.2348
47 1 Ar 1.61198 3.90641 4.60440 0 -1 0 0.7230 1.1175 0.6061
48 1 Ar 0.03523 4.66727 0.46711 0 -1 1 1.8720 -0.2642 2.3146
49 1 Ar 2.39238 0.84735 4.73582 0 0 -1 -1.4889 -0.0655 1.1236
50 1 Ar 2.58371 3.17549 4.09324 0 0 -1 0.2221 -0.6259 -0.1743
51 1 Ar 3.96244 3.03078 0.74790 0 0 0 1.4788 0.1493 0.5062
52 1 Ar 4.14936 2.11449 1.49861 0 0 0 1.6770 -2.8851 -0.0023
53 1 Ar 1.90855 4.58109 1.57184 0 -1 0 -0.7402 -1.5367 -1.0513
54 1 Ar 3.37571 1.48660 1.82160 0 0 0 0.0907 0.7831 1.9286
55 1 Ar 3.07810 3.13188 1.05324 0 -1 0 0.3285 -0.3677 0.3440
56 1 Ar 1.60260 3.29651 3.01023 0 0 0 0.4679 -1.8554 0.3925
57 1 Ar 1.72694 1.19945 3.81068 0 0 0 0.9087 0.9111 -1.7302
58 1 Ar 1.22110 2.32075 3.56027 0 0 0 0.1277 -1.9419 3.7575
59 1 Ar 0.11871 0.55660 4.88038 0 0 0 1.0475 1.2461 1.4215
60 1 Ar 4.34846 2.05824 4.32550 -1 0 0 -1.8163 2.2742 -2.4960
61 1 Ar 0.96971 1.60209 4.69243 0 0 -1 -0.4010 1.5268 -1.1733
62 1 Ar 1.05027 3.30116 1.30918 0 0 0 1.7108 0.5329 -0.3947
63 1 Ar 2.78183 2.30215 1.40531 0 0 0 -0.3766 -0.9088 -1.4155
64 1 Ar 2.62499 1.38753 0.95138 0 0 0 -1.1202 -0.5613 0.2036
65 1 Ar 2.33648 2.05291 4.71177 0 0 0 3.1700 1.0774 -1.3627
66 1 Ar 3.38342 3.70046 3.05842 0 0 0 0.7843 0.4664 0.5054
67 1 Ar 2.16347 0.34364 3.35073 0 1 0 -0.8879 0.3780 1.3043
68 1 Ar 4.80213 2.29261 3.55753 -1 0 0 0.0635 0.9048 0.6008
69 1 Ar 1.56026 2.61313 4.57990 0 0 0 0.1104 -0.7597 0.2963
70 1 Ar 2.24110 4.82395 4.23431 0 0 0 1.0849 -0.9046 -0.5717
71 1 Ar 1.40646 0.98224 0.35125 0 0 1 0.4235 -1.4337 1.3558
72 1 Ar 1.37077 4.55281 3.41643 0 0 0 1.4467 0.8373 2.1294
73 1 Ar 2.86717 4.40773 0.80061 0 -1 0 1.0831 0.1968 -0.9148
74 1 Ar 4.71909 1.22177 3.13656 0 0 -1 -0.0597 -1.2781 -0.5441
75 1 Ar 0.00455 1.77986 0.15741 1 0 0 -0.2196 0.2044 1.3410
76 1 Ar 4.58486 3.17261 2.87435 0 0 -1 0.1222 0.5950 0.2971
77 1 Ar 4.08131 1.04603 1.05510 0 0 0 0.0296 0.5144 -0.6078
78 1 Ar 4.07376 1.24298 0.01145 0 0 0 -1.7694 0.1183 1.6554
79 1 Ar 0.69003 4.37589 1.66616 1 -1 0 -1.7701 2.0329 0.4697
80 1 Ar 3.46289 2.80905 3.84624 0 0 0 -1.6908 -3.4301 -0.8241
81 1 Ar 3.00126 4.76963 2.79376 0 -1 0 0.9644 1.6766 0.2049
82 1 Ar 4.68445 2.00455 2.54841 0 0 0 0.2613 2.1303 0.0890
83 1 Ar 0.22648 4.73578 2.59998 1 -1 0 1.1415 0.0987 1.2578
84 1 Ar 4.46002 0.78128 4.07732 0 0 0 -1.4961 4.2919 -0.7129
85 1 Ar 2.58584 3.11395 2.78639 0 0 -1 -0.2742 -1.9135 0.8820
86 1 Ar 4.54159 3.82845 0.17506 0 0 0 -1.3757 -0.7102 -2.2557
87 1 Ar 4.66674 4.04140 2.07009 0 0 0 -1.7427 -0.5720 -0.5276
88 1 Ar 4.45365 4.58744 4.57950 0 0 -1 0.9191 -1.3192 0.9199
89 1 Ar 1.98182 3.98134 0.76238 0 -1 0 -1.3114 2.5729 0.5531
90 1 Ar 4.41951 2.98620 1.92946 0 0 0 1.9953 0.0653 -0.2940
91 1 Ar 0.24928 0.19411 3.45700 1 0 0 0.6178 -0.2522 0.5198
92 1 Ar 1.77384 2.00211 1.01148 0 0 0 -1.5554 -1.0762 0.6322
93 1 Ar 1.57046 1.76988 2.69684 0 0 0 0.0823 -0.0033 -1.4192
94 1 Ar 3.49484 4.13788 3.97659 0 0 0 -0.3109 0.2049 0.2332
95 1 Ar 1.16865 4.77897 0.14339 1 -1 1 -0.4048 -2.5569 -1.8560
96 1 Ar 3.63085 2.74861 2.43535 0 0 0 0.0005 -0.1321 0.5287
97 1 Ar 4.33204 4.18546 3.30465 0 0 -1 2.2922 0.2040 -0.5589
98 1 Ar 0.47483 1.12101 3.97046 1 1 -1 0.7366 -1.6112 0.0580
99 1 Ar 3.84400 4.45866 0.40283 0 0 0 0.1295 -0.8924 0.2947
100 1 Ar 3.08711 1.49426 5.02551 0 1 -1 0.5220 -1.0626 2.4347
101 1 Ar 2.31374 3.44349 1.64779 0 0 0 -0.7659 0.9811 -1.4919
102 1 Ar 2.51160 4.03355 4.96500 0 0 -1 -1.8175 1.0860 0.1350
103 1 Ar 3.18847 3.93534 2.01935 0 0 0 0.7793 -0.0722 0.0205
104 1 Ar 2.20867 3.85282 3.65915 0 0 0 0.7149 0.2578 0.7380
105 1 Ar 0.35123 3.73821 3.36452 1 0 0 -1.3827 -0.4473 -0.1353
106 1 Ar 3.05280 0.62253 3.97059 1 1 0 -0.1688 -0.6019 -1.1114
107 1 Ar 3.46091 0.92832 3.13334 0 0 0 1.0118 0.2928 -1.0823
108 1 Ar 3.25468 0.30748 1.83771 0 1 0 1.7641 -0.9062 1.0161
ITEM: TIMESTEP
1720
ITEM: NUMBER OF ATOMS
108
ITEM: BOX BOUNDS pp pp pp
0.0000000000000000e+00 5.0387885741475218e+00
0.0000000000000000e+00 5.0387885741475218e+00
0.0000000000000000e+00 5.0387885741475218e+00
ITEM: ATOMS id type element x y z ix iy iz vx vy vz
1 1 Ar 1.31303 0.57729 4.22342 0 0 -1 0.1393 1.4402 -0.6523
2 1 Ar 0.43529 0.93184 0.92895 0 0 0 -0.6689 -1.2004 -0.7716
3 1 Ar 4.88938 3.82455 1.13350 -1 -1 0 -0.7224 2.3942 0.6134
4 1 Ar 1.13489 4.92584 0.99227 0 -1 0 0.7309 -1.0091 0.6105
5 1 Ar 3.53788 2.08364 0.89545 -1 0 0 -1.0436 -0.6551 -0.0807
6 1 Ar 2.06756 1.57974 1.91973 -1 0 0 1.2160 0.3432 0.7432
7 1 Ar 1.62921 4.78448 2.77849 0 -1 0 -0.6443 -1.6027 2.0776
8 1 Ar 3.85419 1.87251 2.71137 -1 0 0 0.3980 -0.4821 -1.7571
9 1 Ar 0.44307 4.67438 4.50450 0 -1 0 -0.7333 -0.2180 0.2248
10 1 Ar 3.26829 4.73620 4.70839 0 -1 0 -2.2404 -0.4026 0.5139
11 1 Ar 0.80658 3.96742 1.03924 0 -1 1 1.6352 0.6091 2.2386
12 1 Ar 4.64084 0.53416 0.25828 -1 0 1 2.0757 3.7900 -0.7976
13 1 Ar 3.45197 2.62186 0.08384 -1 0 0 0.2857 0.6432 2.9356
14 1 Ar 4.92332 2.24096 0.98733 -1 0 0 0.7159 -2.3603 -1.1494
15 1 Ar 0.28785 3.09145 2.54348 0 0 0 0.4561 0.5424 1.8095
16 1 Ar 4.37455 1.07242 2.13844 -1 1 0 -0.0578 -0.4248 -0.9620
17 1 Ar 0.45164 1.60206 2.81302 0 0 0 0.0646 1.2882 2.2355
18 1 Ar 1.67357 2.51896 2.03827 0 0 0 0.9670 -2.8367 -3.9525
19 1 Ar 1.16169 1.35386 1.50322 0 0 0 -0.2817 -0.7866 -1.7882
20 1 Ar 4.72812 2.64077 4.98885 -1 0 0 0.3135 -1.2654 0.7202
21 1 Ar 0.48194 0.44846 2.16030 0 0 0 -0.4074 -1.0933 0.6790
22 1 Ar 0.48197 2.71069 4.37131 0 0 0 0.7525 1.7436 0.7278
23 1 Ar 0.61622 2.42729 1.72335 0 0 1 1.0324 -0.3266 -0.8707
24 1 Ar 4.08670 3.50437 4.01789 -1 0 0 -1.7284 -1.3196 -1.1100
25 1 Ar 3.47016 3.66469 5.02714 -1 0 -1 -1.2630 -1.4786 0.2889
26 1 Ar 2.12859 2.22820 3.51976 0 0 -1 -1.3224 -0.8650 -2.6110
27 1 Ar 0.37343 3.10663 0.40808 0 0 0 -1.5705 1.4858 0.1263
28 1 Ar 1.18755 3.76547 2.35817 0 0 0 -0.9276 0.2463 0.8903
29 1 Ar 4.45070 4.91917 1.49003 -1 0 0 0.8101 0.3019 0.6677
30 1 Ar 0.16976 1.50113 1.79360 0 1 0 2.0302 2.0126 -0.1352
31 1 Ar 1.20426 0.77827 2.91480 0 1 0 0.0512 -0.5984 -0.9991
32 1 Ar 3.92102 3.96509 1.30302 -1 0 0 0.9659 1.0683 1.3184
33 1 Ar 2.78539 2.09277 2.39756 -1 0 0 0.3631 -0.0514 1.0006
34 1 Ar 0.92591 2.14537 0.63016 0 0 0 -0.2382 0.7378 0.2319
35 1 Ar 1.17972 3.19935 3.84028 0 0 0 0.6310 -1.7526 0.1036
36 1 Ar 0.10263 3.66268 4.50194 0 0 0 -1.9749 -0.7788 -3.2483
37 1 Ar 3.13899 1.34877 4.03511 0 0 -1 0.6091 -1.1127 1.1646
38 1 Ar 3.46636 0.48531 0.42533 0 0 0 0.6827 2.0063 1.1945
39 1 Ar 2.37004 2.80604 0.50746 0 -1 0 0.6172 -0.0719 -1.7944
40 1 Ar 2.15949 4.91574 0.54421 0 -1 0 1.2227 0.0803 -0.8467
41 1 Ar 2.35737 3.81416 2.46127 0 -1 0 -0.5444 1.5852 -3.1963
42 1 Ar 3.97439 0.29513 3.71490 0 0 0 0.5862 1.8266 0.3722
43 1 Ar 4.46907 0.19707 2.54669 0 0 0 2.1881 1.1908 -0.4390
44 1 Ar 1.96765 0.45048 1.47431 0 0 0 -1.1313 -1.2946 1.6044
45 1 Ar 2.71649 1.12275 3.17344 0 0 0 0.9308 -0.1406 -0.1074
46 1 Ar 2.50432 0.65293 2.25924 0 0 0 1.5234 -2.5123 -0.0124
47 1 Ar 1.38169 3.92132 4.60261 0 -1 0 -0.2646 -0.4090 1.9673
48 1 Ar 0.14934 4.86558 0.70818 0 -1 1 -1.1877 1.3868 -0.7142
49 1 Ar 2.07967 0.72951 4.75027 0 0 -1 0.4026 -0.1215 0.2120
50 1 Ar 2.52189 3.28873 4.34202 0 0 -1 -0.7370 2.9096 0.7559
51 1 Ar 4.09981 2.90617 0.90597 0 0 0 -0.1562 0.2041 0.7160
52 1 Ar 4.15591 1.94074 1.64450 0 0 0 -2.0035 0.9476 -0.0360
53 1 Ar 1.83634 4.48469 1.75418 0 -1 0 0.2037 -1.1414 -0.7300
54 1 Ar 3.29632 1.32014 1.87174 0 0 0 -1.0754 -2.0898 -1.0375
55 1 Ar 3.16154 3.35312 1.03670 0 -1 0 -0.5804 -0.1632 -0.8200
56 1 Ar 1.59278 2.81670 2.90971 0 0 0 -0.6072 -0.3057 0.2238
57 1 Ar 1.76168 1.28459 3.81269 0 0 0 1.6366 -0.4959 1.6504
58 1 Ar 1.03353 2.15205 3.63077 0 0 0 -1.9230 1.1452 -1.7536
59 1 Ar 0.59997 0.77397 4.94641 0 0 0 1.4452 -0.9945 0.8515
60 1 Ar 3.88087 2.31129 4.18640 -1 0 0 -2.0573 2.2083 -1.4516
61 1 Ar 0.98492 1.63630 4.91672 0 0 -1 2.2191 -1.4059 -0.4484
62 1 Ar 1.20157 3.07708 1.37264 0 0 0 -1.1686 -0.9606 -2.0312
63 1 Ar 2.56449 2.43234 1.42738 0 0 0 -0.0235 2.3103 -0.2143
64 1 Ar 2.62130 1.14278 0.88418 0 0 0 0.9915 -1.6226 1.1791
65 1 Ar 2.53532 2.00585 4.32623 0 0 0 -1.0196 -0.3117 1.8434
66 1 Ar 3.47139 3.74082 3.03357 0 0 0 -1.7338 1.3220 0.1965
67 1 Ar 1.99076 0.35858 3.42447 0 1 0 -1.0088 -0.6399 0.3414
68 1 Ar 0.09472 2.45437 3.36875 0 0 0 2.1573 0.3141 0.2144
69 1 Ar 1.55412 2.77554 4.84681 0 0 0 0.1550 1.3320 1.7861
70 1 Ar 2.26717 4.86947 4.32500 0 0 0 -2.7500 -1.3652 2.0703
71 1 Ar 1.41166 0.85944 0.59955 0 0 1 -0.8577 0.4171 0.8928
72 1 Ar 1.26002 4.58937 3.82749 0 0 0 -1.5601 -0.5287 -0.1808
73 1 Ar 2.94202 4.46828 0.98368 0 -1 0 0.5967 -0.4521 2.1338
74 1 Ar 4.68878 0.97031 3.12327 0 0 -1 -0.8011 2.7405 0.6282
75 1 Ar 0.05717 1.61934 0.20914 1 0 0 0.7089 -1.4365 -0.4583
76 1 Ar 4.28952 3.21576 2.97975 0 0 -1 -0.3417 -1.1347 0.3875
77 1 Ar 4.07051 0.93235 1.09067 0 0 0 0.0403 -1.3112 0.7948
78 1 Ar 4.09451 1.48392 0.03578 0 0 0 -1.0757 1.2285 0.2341
79 1 Ar 0.23489 4.59419 1.73438 1 -1 0 -0.8969 -0.7954 1.3280
80 1 Ar 3.35620 2.56562 3.41307 0 0 0 1.3665 -1.2323 -1.3202
81 1 Ar 3.15101 5.01034 2.96236 0 -1 0 -0.5545 -1.0480 1.4675
82 1 Ar 4.70596 2.34255 2.43788 0 0 0 0.3674 -0.1785 1.2125
83 1 Ar 0.44930 4.61952 2.78894 1 -1 0 1.3206 -0.3717 0.5372
84 1 Ar 4.30109 1.35191 3.98736 0 0 0 1.0221 -0.7430 -1.8720
85 1 Ar 2.68064 3.08257 3.00878 0 0 -1 -0.7260 1.7626 1.2237
86 1 Ar 4.38305 3.77929 0.31588 0 0 0 -0.2617 -0.1544 -1.2984
87 1 Ar 4.47312 4.02575 2.30507 0 0 0 -0.5959 0.1380 0.9843
88 1 Ar 4.21046 4.67535 4.48776 0 0 -1 0.6831 -0.3976 -1.4093
89 1 Ar 1.70901 3.88542 0.57414 0 -1 0 -0.5145 -2.5544 -0.8434
90 1 Ar 4.71136 3.06051 1.69302 0 0 0 -0.9689 0.3905 0.6461
91 1 Ar 4.93249 0.10741 3.48452 0 0 0 -0.9375 -2.7713 0.7918
92 1 Ar 1.88914 1.85305 0.74871 0 0 0 2.2687 -0.7388 -2.4555
93 1 Ar 1.51618 1.73231 2.88966 0 0 0 0.1208 1.0352 0.1214
94 1 Ar 3.37525 4.37192 3.78768 0 0 0 -1.2498 1.1164 -2.5233
95 1 Ar 1.17544 4.86246 0.01418 1 -1 1 0.8066 2.2076 -0.4139
96 1 Ar 3.53258 3.00239 2.19286 0 0 0 0.1375 -0.1220 -2.2257
97 1 Ar 4.28426 4.43114 3.26756 0 0 -1 -1.7145 0.9944 0.9616
98 1 Ar 0.49760 1.17736 3.75257 1 1 -1 -0.3597 2.1217 -1.8528
99 1 Ar 3.94441 4.69648 0.58891 0 0 0 0.0321 1.3020 -0.2393
100 1 Ar 3.02750 1.41183 5.00661 0 1 -1 1.3955 -0.5187 -1.0445
101 1 Ar 2.30420 3.61893 1.41845 0 0 0 1.3545 1.1085 -0.1433
102 1 Ar 2.51031 4.12819 4.98174 0 0 -1 0.9628 -1.3334 0.0152
103 1 Ar 3.24829 4.00075 2.04909 0 0 0 -0.7010 1.5857 0.2146
104 1 Ar 2.34071 4.01977 3.53154 0 0 0 1.0061 0.3654 1.0135
105 1 Ar 0.55489 3.82095 3.38115 1 0 0 1.9114 0.1218 0.9742
106 1 Ar 2.93139 0.35925 3.92914 1 1 0 1.1310 -2.1423 -0.8274
107 1 Ar 3.62653 0.79342 2.79383 0 0 0 0.2202 0.3182 -0.6351
108 1 Ar 3.58426 0.16865 1.90114 0 1 0 -0.7440 0.2621 0.5980
ITEM: TIMESTEP
1760
ITEM: NUMBER OF ATOMS
108
ITEM: BOX BOUNDS pp pp pp
0.0000000000000000e+00 5.0387885741475218e+00
0.0000000000000000e+00 5.0387885741475218e+00
0.0000000000000000e+00 5.0387885741475218e+00
ITEM: ATOMS id type element x y z ix iy iz vx vy vz
1 1 Ar 1.03107 0.56047 3.99753 0 0 -1 -0.7093 1.1413 -0.6460
2 1 Ar 0.20356 0.76200 1.10561 0 0 0 -1.8776 -0.0510 0.2811
3 1 Ar 4.90817 4.14130 1.10765 -1 -1 0 -0.4302 0.4851 0.8208
4 1 Ar 0.90345 0.11550 1.00867 0 0 0 -2.7220 1.2811 0.3749
5 1 Ar 3.05227 1.62681 1.04365 -1 0 0 -1.8211 -1.2472 1.3773
6 1 Ar 2.37729 1.33117 1.93804 -1 0 0 1.5240 0.8450 -1.3418
7 1 Ar 1.60061 4.58230 2.98457 0 -1 0 -1.0861 2.3130 -0.3168
8 1 Ar 3.74312 1.74752 2.55317 -1 0 0 -1.1045 0.7206 0.5466
9 1 Ar 0.32616 4.51885 4.74077 0 -1 0 1.3025 -2.0575 1.6681
10 1 Ar 3.07518 4.90859 4.93215 0 -1 0 0.1780 0.1747 -1.0190
11 1 Ar 0.93080 3.90024 1.28841 0 -1 1 -0.8296 -0.5712 -1.0408
12 1 Ar 4.34519 0.68295 5.01099 -1 0 0 -1.9361 -1.4807 -2.3957
13 1 Ar 3.48663 2.45230 0.30360 -1 0 0 -0.4424 -0.7480 2.4428
14 1 Ar 4.82655 1.96405 1.00628 -1 0 0 -0.4669 -1.3888 -0.1722
15 1 Ar 0.26712 3.20837 2.72693 0 0 0 -1.4919 -0.3441 0.4236
16 1 Ar 4.32558 1.01946 1.96939 -1 1 0 0.3107 -1.9429 -0.7371
17 1 Ar 0.65871 1.90905 2.73628 0 0 0 1.4530 1.5009 0.4044
18 1 Ar 1.75831 2.18731 1.37707 0 0 0 2.6947 -0.7580 -2.1701
19 1 Ar 1.21363 1.33180 1.47268 0 0 0 -1.0148 -1.6060 -0.6031
20 1 Ar 4.61165 2.57186 5.02223 -1 0 0 1.1357 2.1511 0.0572
21 1 Ar 0.49786 0.50864 2.02429 0 0 0 0.5533 -0.9039 -1.0041
22 1 Ar 0.49322 2.76678 4.63166 0 0 0 -1.7479 0.3956 0.3776
23 1 Ar 0.61693 2.65365 1.93887 0 0 1 -1.2046 1.2640 2.3542
24 1 Ar 3.66486 3.39704 3.82582 -1 0 0 -1.7804 -0.9424 -1.0489
25 1 Ar 3.38906 3.62128 4.83123 -1 0 -1 1.0792 -2.5613 1.2714
26 1 Ar 2.38370 2.23408 3.39889 0 0 -1 1.3357 -0.4642 0.8141
27 1 Ar 0.37556 3.44564 0.52029 0 0 0 1.1048 0.1381 -0.6517
28 1 Ar 1.14788 3.84136 2.26370 0 0 0 1.1079 0.4956 -1.3165
29 1 Ar 4.53153 4.98989 1.52180 -1 0 0 2.3616 -0.4076 0.1001
30 1 Ar 0.28479 1.48593 1.82304 0 1 0 0.5889 2.1330 0.4643
31 1 Ar 1.24688 0.61267 2.87603 0 1 0 0.8540 -0.8088 0.5947
32 1 Ar 3.95286 3.99660 1.42524 -1 0 0 -0.0454 -0.5344 -0.0368
33 1 Ar 2.69433 2.09287 2.35916 -1 0 0 -0.8901 0.6819 -1.9977
34 1 Ar 0.83214 2.03794 0.66203 0 0 0 -0.1306 -2.6102 0.1294
35 1 Ar 1.57596 3.07559 3.95082 0 0 0 -1.0914 -1.0107 -0.3708
36 1 Ar 4.67774 3.64614 3.87125 -1 0 0 -2.0348 0.6735 -3.0105
37 1 Ar 3.42393 1.33501 3.97151 0 0 -1 0.3068 1.8880 -0.2620
38 1 Ar 3.44139 0.57863 0.38303 0 0 0 -0.9037 1.0152 0.0660
39 1 Ar 2.56608 3.01518 0.22707 0 -1 0 0.7037 2.6779 0.5337
40 1 Ar 2.35615 0.02928 0.56485 0 0 0 -1.4065 -1.4811 0.1580
41 1 Ar 2.27029 3.87509 2.45950 0 -1 0 1.1022 -0.7562 -0.9324
42 1 Ar 4.13057 0.47850 3.70646 0 0 0 1.9687 -0.8030 0.2588
43 1 Ar 4.66446 4.98912 2.65500 0 -1 0 0.0480 -0.8647 1.1030
44 1 Ar 1.70567 0.52361 1.63327 0 0 0 -3.1339 -0.6867 -0.1583
45 1 Ar 2.66424 1.20078 3.01274 0 0 0 0.0090 0.2749 -2.0599
46 1 Ar 2.48588 0.31524 2.36101 0 0 0 -0.4322 -2.8423 1.8264
47 1 Ar 1.11916 3.86735 4.63441 0 -1 0 -2.4421 -0.5907 -0.4651
48 1 Ar 5.02667 4.92760 0.49541 -1 -1 1 -1.0070 0.5536 -0.1128
49 1 Ar 2.33164 0.79079 4.89054 0 0 -1 0.8863 -0.7710 -0.7057
50 1 Ar 2.52304 3.32367 4.30244 0 0 -1 3.6142 0.4645 0.6811
51 1 Ar 4.34075 2.97244 0.92267 0 0 0 2.3080 0.7399 -0.3517
52 1 Ar 4.04500 2.18378 1.55485 0 0 0 -0.5327 -0.1871 -1.1580
53 1 Ar 1.79423 4.50029 1.63851 0 -1 0 1.4215 1.0653 0.3678
54 1 Ar 3.40776 1.14211 1.86244 0 0 0 0.8301 -0.0703 0.4392
55 1 Ar 3.33864 3.45158 0.80806 0 -1 0 1.4238 1.8022 -1.0528
56 1 Ar 1.32039 2.92732 2.71976 0 0 0 -0.8412 -1.0704 -0.7668
57 1 Ar 2.34959 1.35361 3.92041 0 0 0 3.8842 -1.0159 0.1876
58 1 Ar 1.30283 2.05061 3.68881 0 0 0 2.2933 -1.0958 0.6618
59 1 Ar 0.40044 0.58374 4.98381 0 0 0 -1.2921 1.3981 -0.8766
60 1 Ar 3.77210 2.44103 4.29664 -1 0 0 -0.2839 -0.5931 -1.0170
61 1 Ar 1.54452 1.49163 4.62093 0 0 -1 0.1901 -0.6294 0.3299
62 1 Ar 1.17348 2.96609 1.16307 0 0 0 -1.0018 -1.0182 0.7764
63 1 Ar 2.74014 2.62632 1.41957 0 0 0 0.0263 -1.4537 -0.3327
64 1 Ar 2.52102 0.79354 1.04156 0 0 0 -0.6340 1.4833 1.8002
65 1 Ar 2.21729 2.31410 4.54626 0 0 0 -1.5133 2.5416 -2.7681
66 1 Ar 3.28401 3.62236 2.96743 0 0 0 -0.6259 -2.1788 0.0640
67 1 Ar 1.96685 0.26508 3.57615 0 1 0 -1.1434 -0.5438 0.0571
68 1 Ar 4.94359 2.70324 3.73445 -1 0 0 -0.5609 -0.0994 3.0213
69 1 Ar 1.40949 2.79354 5.03718 0 0 0 0.2263 -1.9151 0.7554
70 1 Ar 2.04164 4.43965 4.42323 0 0 0 1.0982 -1.2901 1.9072
71 1 Ar 1.56609 0.95154 0.55439 0 0 1 0.0385 0.9875 0.4883
72 1 Ar 1.07508 4.58222 3.90229 0 0 0 -0.3313 -1.0254 1.7305
73 1 Ar 3.03348 4.55255 1.06356 0 -1 0 1.0163 1.6193 -0.2747
74 1 Ar 4.76027 1.37962 3.01149 0 0 -1 1.2202 1.1748 1.6355
75 1 Ar 0.50318 1.78298 4.81643 1 0 -1 2.3486 0.8696 -3.6493
76 1 Ar 4.31264 3.13917 2.88922 0 0 -1 0.4415 2.0843 -0.8780
77 1 Ar 4.19030 0.95935 0.97510 0 0 0 0.9980 1.5354 -1.6548
78 1 Ar 3.94030 1.58873 0.18349 0 0 0 -0.6610 -1.9994 1.8438
79 1 Ar 0.30679 4.40329 2.07289 1 -1 0 -2.0002 0.5235 0.7721
80 1 Ar 3.48186 2.59890 3.21268 0 0 0 -1.2150 0.4399 1.3064
81 1 Ar 3.07139 4.69628 3.12481 0 -1 0 0.2902 -0.1905 3.6099
82 1 Ar 4.68278 2.22095 2.40420 0 0 0 -0.6700 -0.4966 -0.9178
83 1 Ar 0.65448 4.70966 2.99232 1 -1 0 0.6482 0.7182 -0.4755
84 1 Ar 4.50099 1.62654 4.30361 0 0 0 2.2820 2.3476 2.2569
85 1 Ar 2.26754 3.24711 3.22240 0 0 -1 -1.8355 0.2404 1.5426
86 1 Ar 4.46971 3.73068 4.98620 0 0 -1 0.5744 -0.3367 -1.4666
87 1 Ar 4.39454 4.03956 2.38733 0 0 0 -0.3629 0.0468 0.0558
88 1 Ar 4.25540 4.50529 4.29034 0 0 -1 -1.0270 -0.3968 -0.0299
89 1 Ar 1.63662 3.67260 0.50196 0 -1 0 -1.6083 1.5243 -0.7246
90 1 Ar 4.63930 3.16757 1.97466 0 0 0 0.2875 1.0709 -0.5963
91 1 Ar 5.02394 4.97941 3.71725 0 -1 0 -1.2998 1.0322 1.9697
92 1 Ar 2.12056 1.70180 0.60031 0 0 0 -0.5757 0.0121 2.5228
93 1 Ar 1.57753 1.66877 2.31830 0 0 0 1.2556 0.1463 -2.2976
94 1 Ar 3.25883 4.27261 4.16427 0 0 0 -1.6090 2.2499 -0.3227
95 1 Ar 1.38158 4.98026 0.04578 1 -1 1 0.0494 -1.6161 -1.3861
96 1 Ar 3.56733 3.06987 1.83187 0 0 0 0.3640 2.4005 -0.3317
97 1 Ar 4.02666 4.42136 3.29060 0 0 -1 -0.6212 0.0614 0.3665
98 1 Ar 0.40953 1.35932 3.95483 1 1 -1 -1.3670 1.3239 1.0199
99 1 Ar 4.05475 4.73258 0.43219 0 0 0 0.0372 -0.9302 -0.8855
100 1 Ar 3.00045 1.59143 4.96281 0 1 -1 0.8060 1.8564 -2.4105
101 1 Ar 2.36550 3.62395 1.35372 0 0 0 0.3694 0.3899 0.7157
102 1 Ar 2.65791 4.13605 0.30137 0 0 0 2.2469 -0.2327 0.1604
103 1 Ar 3.12527 4.26668 2.06624 0 0 0 -1.0554 -1.1660 -1.4008
104 1 Ar 2.34336 4.22417 3.47818 0 0 0 2.1229 -0.6317 -1.0150
105 1 Ar 0.73295 3.63046 3.63215 1 0 0 0.8411 -1.6855 1.5637
106 1 Ar 2.91000 0.38131 4.00436 1 1 0 0.3760 0.4313 1.2702
107 1 Ar 3.65038 0.62746 2.80471 0 0 0 -0.6075 -2.4766 0.2932
108 1 Ar 3.58965 0.15017 1.87096 0 1 0 0.9202 0.1944 -1.0045
ITEM: TIMESTEP
1800
ITEM: NUMBER OF ATOMS
108
ITEM: BOX BOUNDS pp pp pp
0.0000000000000000e+00 5.0387885741475218e+00
0.0000000000000000e+00 5.0387885741475218e+00
0.0000000000000000e+00 5.0387885741475218e+00
ITEM: ATOMS id type element x y z ix iy iz vx vy vz
1 1 Ar 1.08020 0.56744 3.98930 0 0 -1 1.2032 -1.0081 0.4098
2 1 Ar 0.20350 0.92275 1.08887 0 0 0 -0.4996 -0.3165 -0.7528
3 1 Ar 4.98036 4.07031 0.98469 -1 -1 0 1.0451 2.4213 -1.2500
4 1 Ar 0.76855 5.00981 0.94830 0 -1 0 -0.8103 0.1115 -0.8805
5 1 Ar 3.13480 1.66036 1.04425 -1 0 0 -0.6929 1.7789 0.7590
6 1 Ar 2.30987 1.41989 1.68368 -1 0 0 -0.9750 0.4344 -2.3293
7 1 Ar 1.53657 4.57081 2.74240 0 -1 0 -1.4993 0.0138 0.2112
8 1 Ar 3.61971 1.77134 2.67265 -1 0 0 -0.5973 -0.0695 0.0202
9 1 Ar 0.29161 4.42504 4.99743 0 -1 0 0.2087 0.3980 2.5369
10 1 Ar 3.16566 0.01583 5.01391 0 0 0 1.2295 -0.2032 -1.3661
11 1 Ar 0.96936 4.12818 1.25036 0 -1 1 1.2999 0.0446 0.6690
12 1 Ar 4.15076 0.42765 4.70597 -1 0 0 -0.6951 0.8690 0.9761
13 1 Ar 3.60312 2.55608 0.54280 -1 0 0 1.7766 -0.5114 -0.0312
14 1 Ar 4.77555 1.83060 0.73756 -1 0 0 -1.3008 0.5380 -1.6533
15 1 Ar 0.05528 3.25364 2.80048 0 0 0 -1.8367 -0.3875 -1.2870
16 1 Ar 4.74142 0.91300 2.17879 -1 1 0 1.3794 0.8796 -0.2248
17 1 Ar 0.67373 2.00275 3.10931 0 0 0 -1.6572 -0.0310 2.7829
18 1 Ar 1.90151 2.40786 1.57068 0 0 0 0.3134 1.7197 0.6642
19 1 Ar 1.17431 1.18079 1.61694 0 0 0 2.6052 0.5251 2.3035
20 1 Ar 4.55642 2.61212 4.99018 -1 0 0 1.2662 -1.9781 -0.1424
21 1 Ar 0.50483 0.30080 2.13972 0 0 0 -0.2707 -0.8567 1.3958
22 1 Ar 0.31325 2.85657 4.51366 0 0 0 -1.6982 0.3001 -0.4980
23 1 Ar 0.49179 2.75075 2.02836 0 0 1 0.8980 0.6640 0.1739
24 1 Ar 3.81231 3.49176 3.79595 -1 0 0 0.7072 1.2029 -0.1090
25 1 Ar 3.64828 3.28003 4.90837 -1 0 -1 -2.5400 3.8957 -0.2671
26 1 Ar 2.47591 1.97156 3.27739 0 0 -1 0.3244 -1.1570 -2.8393
27 1 Ar 0.51057 3.43519 0.42520 0 0 0 1.1673 -0.0043 -0.4840
28 1 Ar 1.16751 3.82501 2.12762 0 0 0 -1.6608 -2.0807 -0.7343
29 1 Ar 4.83141 4.99857 1.47742 -1 0 0 1.7694 -0.5244 -0.6141
30 1 Ar 0.29478 1.70193 1.94824 0 1 0 -0.1509 -0.5867 0.4096
31 1 Ar 1.30219 0.71731 2.82007 0 1 0 0.1385 1.0715 -0.4277
32 1 Ar 4.05504 4.37071 1.31347 -1 0 0 0.0951 0.7970 -2.0762
33 1 Ar 2.66851 2.61027 2.42474 -1 0 0 -0.2198 2.2284 0.8295
34 1 Ar 0.80816 1.81046 0.57040 0 0 0 -0.6670 -1.1876 -0.3973
35 1 Ar 1.24146 2.70574 4.00377 0 0 0 -0.7420 -2.6305 -0.8641
36 1 Ar 4.71945 3.74604 3.72000 -1 0 0 -0.3422 1.1265 0.6307
37 1 Ar 3.86509 1.51354 3.68566 0 0 -1 2.1793 1.0254 -1.9621
38 1 Ar 3.11831 0.84328 0.44300 0 0 0 -0.6119 -0.1376 -1.8502
39 1 Ar 2.38729 2.90371 0.44491 0 -1 0 -1.1817 -1.7078 0.1336
40 1 Ar 1.96754 4.75275 0.56141 0 -1 0 0.3354 0.5758 -0.3451
41 1 Ar 2.13141 3.67332 2.43038 0 -1 0 -1.7775 -1.0167 -0.1128
42 1 Ar 4.05849 0.56049 3.56999 0 0 0 -0.0763 -0.2464 -0.6932
43 1 Ar 4.59356 0.17369 2.85721 0 0 0 1.6995 -0.3505 0.6134
44 1 Ar 1.58533 0.27442 1.84525 0 0 0 1.9246 -1.9636 1.6101
45 1 Ar 2.83652 1.15029 2.82707 0 0 0 0.9324 -1.3140 0.7656
46 1 Ar 2.53992 4.99255 2.36481 0 -1 0 0.7449 0.6084 -2.6588
47 1 Ar 1.36373 3.71542 4.60629 0 -1 0 1.5315 0.2513 -1.6021
48 1 Ar 4.74886 0.13965 0.44127 -1 0 1 -1.8133 1.4983 -1.6766
49 1 Ar 2.36063 0.60917 4.92725 0 0 -1 -1.6162 -1.3073 0.0610
50 1 Ar 2.60705 3.40174 4.29583 0 0 -1 -0.8166 0.1193 0.2480
51 1 Ar 4.52615 3.16658 0.80180 0 0 0 -1.2215 -0.1859 0.1321
52 1 Ar 3.86201 2.21111 1.55685 0 0 0 0.1939 0.7945 0.9012
53 1 Ar 2.17715 4.48185 1.65534 0 -1 0 1.1194 -0.3953 -1.0534
54 1 Ar 3.46902 1.17160 1.91181 0 0 0 -1.9305 2.6228 -0.4014
55 1 Ar 3.50568 3.51102 0.94777 0 -1 0 1.1868 -0.1319 1.2920
56 1 Ar 1.37854 2.86701 2.64900 0 0 0 -0.2367 0.4232 -1.4033
57 1 Ar 2.44156 1.23029 3.98313 0 0 0 -0.5017 -1.5807 0.3696
58 1 Ar 1.56311 1.71360 3.71858 0 0 0 -0.6895 -2.0610 -0.3146
59 1 Ar 0.28502 0.96415 4.76030 0 0 0 0.7769 -0.6849 0.0729
60 1 Ar 3.78261 2.44822 4.29180 -1 0 0 0.9284 0.2505 -0.5422
61 1 Ar 1.67438 1.26412 4.63906 0 0 -1 -1.1523 -1.3144 -0.8312
62 1 Ar 0.94157 2.80291 1.08399 0 0 0 -1.2968 -0.2945 -0.5886
63 1 Ar 2.86793 2.76870 1.40699 0 0 0 0.7883 -0.6463 1.8477
64 1 Ar 2.25955 0.46978 0.98040 0 0 0 -1.1906 0.5442 1.5763
65 1 Ar 2.24198 2.52599 4.35876 0 0 0 -2.0399 0.5572 -0.1325
66 1 Ar 3.02549 3.45411 2.78024 0 0 0 -0.4160 0.0436 1.5384
67 1 Ar 2.07460 0.25475 3.89884 0 1 0 1.3939 -0.5658 1.9436
68 1 Ar 4.62066 2.57954 3.85003 -1 0 0 -2.0657 -0.2203 -2.2959
69 1 Ar 1.52645 2.50041 0.24273 0 0 1 1.4977 -0.4345 0.6453
70 1 Ar 2.11793 4.26583 4.56784 0 0 0 -0.1447 1.1798 -0.2972
71 1 Ar 1.31352 0.61941 0.40253 0 0 1 -0.9770 -1.1317 -1.1887
72 1 Ar 1.11614 4.50826 3.88579 0 0 0 1.1641 -0.7625 -2.4031
73 1 Ar 3.15780 4.91801 0.94747 0 -1 0 -0.9054 1.8439 1.1741
74 1 Ar 4.54813 1.53981 2.85072 0 0 -1 -1.8298 0.9470 -0.2241
75 1 Ar 0.90439 1.97464 4.53908 1 0 -1 1.7872 -1.0455 -1.7121
76 1 Ar 4.00418 3.12474 2.81177 0 0 -1 0.4026 0.3123 -1.2510
77 1 Ar 3.96256 0.88090 1.13663 0 0 0 0.6542 -1.6081 -0.6374
78 1 Ar 3.82485 1.71773 0.02452 0 0 0 0.4456 0.1539 -0.5427
79 1 Ar 0.28364 4.22087 2.09695 1 -1 0 0.2469 -1.4709 0.4104
80 1 Ar 3.34424 2.61250 3.38712 0 0 0 -1.2576 0.2264 1.8212
81 1 Ar 2.97937 4.84724 3.32429 0 -1 0 -1.6864 -0.6158 1.1689
82 1 Ar 4.41152 2.44191 2.32089 0 0 0 -1.1730 2.5699 -0.5036
83 1 Ar 0.54484 4.88434 3.07985 1 -1 0 0.4822 0.5570 1.3075
84 1 Ar 4.88570 1.73782 4.73208 0 0 0 2.0275 -1.2351 0.8125
85 1 Ar 2.17297 2.94102 3.32092 0 0 -1 1.2285 -1.1431 1.2620
86 1 Ar 4.70030 3.66296 4.76465 0 0 -1 0.0833 -1.3787 -1.2823
87 1 Ar 4.16017 4.17569 2.42560 0 0 0 -1.0050 0.3892 0.3866
88 1 Ar 4.08630 4.45189 4.35760 0 0 -1 0.8898 -1.7161 -0.9122
89 1 Ar 1.57836 3.80473 0.55536 0 -1 0 -0.2468 -4.6726 1.7747
90 1 Ar 4.70787 3.42996 1.92358 0 0 0 -1.0478 2.1317 0.9311
91 1 Ar 0.19581 4.97436 4.16566 1 -1 0 0.5773 0.6326 1.5656
92 1 Ar 2.34487 1.67008 0.27689 0 0 0 0.9872 0.0186 0.0097
93 1 Ar 1.46746 1.78660 2.47946 0 0 0 -0.9636 -0.0207 2.1196
94 1 Ar 3.15919 4.28594 4.19489 0 0 0 -0.3676 -0.4315 1.3425
95 1 Ar 1.14535 4.82969 4.93214 1 -1 0 -1.0669 0.3185 -0.0700
96 1 Ar 3.60571 3.20873 1.91449 0 0 0 1.3393 -0.5882 -0.1302
97 1 Ar 3.90285 4.53389 3.35794 0 0 -1 -0.5532 0.7971 1.2466
98 1 Ar 0.35827 1.43959 3.86314 1 1 -1 -0.2103 1.3164 -0.6085
99 1 Ar 3.92419 4.30974 0.35513 0 0 0 0.9466 -3.2823 -0.1270
100 1 Ar 3.03801 1.99389 4.63849 0 1 -1 0.9942 0.4498 -0.7245
101 1 Ar 2.46760 3.64334 1.23852 0 0 0 -0.2975 1.2158 -1.7693
102 1 Ar 2.93145 4.07142 0.35039 0 0 0 0.5948 -0.7662 0.3208
103 1 Ar 3.14094 4.24250 1.93680 0 0 0 0.2580 0.7874 -0.1369
104 1 Ar 2.17911 4.08675 3.46871 0 0 0 -1.8359 -0.0940 -0.5135
105 1 Ar 0.65748 3.63219 3.87720 1 0 0 2.2833 1.3509 2.4514
106 1 Ar 3.23376 0.49878 4.12166 1 1 0 1.9818 1.3117 1.7042
107 1 Ar 3.77275 0.69368 2.69382 0 0 0 0.0483 2.3302 0.8386
108 1 Ar 3.87883 0.10206 1.87090 0 1 0 0.9769 0.8806 1.5558
ITEM: TIMESTEP
1840
ITEM: NUMBER OF ATOMS
108
ITEM: BOX BOUNDS pp pp pp
0.0000000000000000e+00 5.0387885741475218e+00
0.0000000000000000e+00 5.0387885741475218e+00
0.0000000000000000e+00 5.0387885741475218e+00
ITEM: ATOMS id type element x y z ix iy iz vx vy vz
1 1 Ar 1.08404 0.52140 3.93572 0 0 -1 -1.7419 0.1054 0.9131
2 1 Ar 0.07030 0.94915 1.03100 0 0 0 -1.3253 -0.8192 0.7895
3 1 Ar 0.13035 4.13150 1.09621 0 -1 0 2.5560 0.5463 -0.8327
4 1 Ar 0.67479 5.00289 0.72134 0 -1 0 1.3310 -1.6400 0.3696
5 1 Ar 3.05579 1.79623 0.76847 -1 0 0 0.6095 -2.1874 -0.5073
6 1 Ar 2.20965 1.94210 1.45103 -1 0 0 -0.9292 3.5108 -0.6898
7 1 Ar 1.31058 4.41549 2.71472 0 -1 0 -0.8453 -2.1269 0.2147
8 1 Ar 3.37370 2.26256 2.64764 -1 0 0 0.8123 1.4618 -0.9639
9 1 Ar 0.19487 4.37364 4.96671 0 -1 0 0.1560 -1.6017 -0.3642
10 1 Ar 3.55858 4.92331 0.05349 0 -1 1 2.4500 0.4986 1.6150
11 1 Ar 1.15775 4.15666 1.17746 0 -1 1 0.0847 -0.5543 0.4011
12 1 Ar 4.19174 0.56675 4.76596 -1 0 0 1.7587 -1.5003 0.4158
13 1 Ar 3.70829 2.64491 0.52568 -1 0 0 1.9986 1.7240 -0.3786
14 1 Ar 4.59524 1.84175 0.93161 -1 0 0 0.3881 -0.3288 1.5096
15 1 Ar 0.20772 3.41344 2.82073 0 0 0 2.8260 2.2692 -0.9973
16 1 Ar 4.67695 1.00534 1.98470 -1 1 0 -0.7429 2.8159 0.0829
17 1 Ar 0.43582 2.40590 2.97586 0 0 0 0.4845 1.8557 -2.2836
18 1 Ar 1.75374 2.80396 1.70067 0 0 0 -1.4617 2.6710 0.8800
19 1 Ar 1.33503 1.14411 1.87173 0 0 0 -0.4100 -0.9786 -1.2795
20 1 Ar 4.63969 2.50311 0.08049 -1 0 1 2.0628 -1.8105 0.4175
21 1 Ar 0.71706 0.18495 2.26292 0 0 0 -0.2432 -0.0043 -0.3629
22 1 Ar 0.37157 2.66309 4.27780 0 0 0 -0.7873 -0.4224 -1.3969
23 1 Ar 0.56719 2.76514 2.02335 0 0 1 2.0713 0.6746 -0.0500
24 1 Ar 3.67602 3.52707 3.90128 -1 0 0 0.8111 -0.4147 1.4171
25 1 Ar 3.34516 3.33532 4.96559 -1 0 -1 -0.6225 -0.9729 3.6829
26 1 Ar 2.34810 1.78563 2.93817 0 0 -1 -0.8730 -0.9080 -0.9179
27 1 Ar 0.65111 3.45995 0.09945 0 0 0 0.4399 -0.2865 -1.6171
28 1 Ar 0.94784 3.67844 2.12137 0 0 0 -0.0912 1.5206 -0.1472
29 1 Ar 4.88770 5.03460 1.55180 -1 0 0 -0.0265 -0.9871 -0.1841
30 1 Ar 0.45552 1.72396 1.96116 0 1 0 1.1323 -1.4560 -0.5799
31 1 Ar 1.31679 0.70004 2.89667 0 1 0 0.2507 -2.0406 1.5701
32 1 Ar 4.02366 4.54217 1.29649 -1 0 0 -0.2581 1.2498 -0.0200
33 1 Ar 2.56493 2.79680 2.51764 -1 0 0 -0.4200 0.8015 0.7461
34 1 Ar 0.66318 1.53975 0.48968 0 0 0 -0.8060 -1.0349 -0.6200
35 1 Ar 1.18761 2.76999 3.61790 0 0 0 -1.5856 1.0252 1.0256
36 1 Ar 4.80830 4.14979 3.43680 -1 0 0 -0.5306 2.9611 -2.1289
37 1 Ar 3.92688 1.80552 3.83947 0 0 -1 -0.4123 0.3867 1.3424
38 1 Ar 3.20129 0.98592 0.24778 0 0 0 0.2025 -0.8764 -1.2329
39 1 Ar 2.73570 2.65657 0.32878 0 -1 0 -0.1188 -0.5603 -2.5132
40 1 Ar 1.72798 4.49600 0.53845 0 -1 0 -2.7379 -0.8859 -1.1748
41 1 Ar 2.09975 3.68568 2.34536 0 -1 0 0.0351 1.9142 -1.3643
42 1 Ar 4.44693 0.44806 3.77305 0 0 0 0.7054 -0.4151 -0.6390
43 1 Ar 4.68792 0.00933 2.74161 0 0 0 -0.7231 0.9759 0.2252
44 1 Ar 1.72242 0.22862 2.05400 0 0 0 1.6863 0.0571 0.5432
45 1 Ar 2.63217 0.71249 3.14743 0 0 0 -1.3800 -0.9296 2.4223
46 1 Ar 2.93100 0.26052 2.13613 0 0 0 1.2579 1.0045 0.9661
47 1 Ar 1.61902 3.47648 4.83522 0 -1 0 -1.1111 -1.0209 2.6772
48 1 Ar 4.77520 0.09191 0.40370 -1 0 1 -0.0549 -1.5739 -0.4341
49 1 Ar 2.22882 0.33471 0.11854 0 0 0 0.9617 -0.2457 1.7087
50 1 Ar 2.53689 3.34280 4.28626 0 0 -1 1.7704 -0.7025 -0.3426
51 1 Ar 4.61765 3.16169 0.86304 0 0 0 1.4040 -0.3986 -0.1341
52 1 Ar 3.92165 2.12152 1.56664 0 0 0 -0.3247 -0.7614 1.2549
53 1 Ar 2.18492 4.47143 1.52986 0 -1 0 1.1029 -0.1140 2.4752
54 1 Ar 3.06535 1.34957 1.86091 0 0 0 -1.1767 -0.1348 0.5200
55 1 Ar 3.47844 3.58431 0.94749 0 -1 0 0.1327 0.6884 -0.4624
56 1 Ar 1.58191 2.82575 2.68662 0 0 0 0.9294 1.8761 -1.5950
57 1 Ar 2.31418 1.39231 3.85281 0 0 0 -0.3788 3.1517 -1.9965
58 1 Ar 1.36050 1.37216 3.67379 0 0 0 -1.9607 1.1488 0.7500
59 1 Ar 0.62620 0.52548 4.94245 0 0 0 0.2987 0.1575 -0.3119
60 1 Ar 3.81748 2.65547 4.37369 -1 0 0 0.3958 0.5707 0.7804
61 1 Ar 1.65227 1.09555 4.60818 0 0 -1 -0.3581 -0.7512 0.7246
62 1 Ar 0.70428 2.53366 1.03546 0 0 0 -2.1536 -2.2061 -0.4701
63 1 Ar 2.91362 2.67917 1.52594 0 0 0 0.4526 -1.0440 0.1842
64 1 Ar 2.14517 0.56677 1.25208 0 0 0 1.8760 -0.7811 1.4278
65 1 Ar 1.81415 2.29664 4.39506 0 0 0 -0.8714 -1.2011 -0.6981
66 1 Ar 3.07269 3.85660 3.15400 0 0 0 2.3366 0.5299 -0.3945
67 1 Ar 2.11352 0.37658 3.89469 0 1 0 -0.1310 1.5543 -0.4812
68 1 Ar 4.43765 2.51484 3.25046 -1 0 0 -3.4480 -0.1955 -0.6732
69 1 Ar 1.34841 2.14577 0.29125 0 0 1 -0.9941 -1.4195 1.1723
70 1 Ar 2.19480 4.37477 4.54769 0 0 0 -0.7248 -1.1735 -1.9781
71 1 Ar 1.43370 0.86597 0.73393 0 0 1 -0.1551 2.3888 2.3343
72 1 Ar 1.54494 4.51265 3.77107 0 0 0 1.4664 -0.8611 -0.9463
73 1 Ar 3.08432 0.13468 1.20891 0 0 0 1.0372 0.4091 -2.1538
74 1 Ar 4.86681 1.64492 2.74683 0 0 -1 2.1207 -1.9664 -0.8586
75 1 Ar 0.89945 1.86185 4.43941 1 0 -1 0.4038 -2.0043 -2.0984
76 1 Ar 4.12330 3.46655 2.97559 0 0 -1 1.8927 0.7198 -0.8034
77 1 Ar 4.04468 0.66327 1.01363 0 0 0 -0.8615 -0.1543 0.4098
78 1 Ar 3.99002 1.63273 5.02587 0 0 -1 -1.2603 2.8522 0.3725
79 1 Ar 0.14081 4.34100 2.29663 1 -1 0 -0.4595 -0.4221 0.9097
80 1 Ar 3.13242 2.59997 3.63696 0 0 0 -0.4896 0.1130 1.0115
81 1 Ar 2.75201 4.76606 3.13278 0 -1 0 -0.8848 0.7985 -3.7714
82 1 Ar 4.58003 2.56728 2.19031 0 0 0 -1.8322 0.6458 -0.4077
83 1 Ar 0.59670 4.99293 3.27111 1 -1 0 0.0232 -0.3274 -2.8660
84 1 Ar 4.96399 1.62313 4.84470 0 0 0 -0.1298 -1.5754 0.7400
85 1 Ar 2.13863 2.85470 3.47328 0 0 -1 0.3760 -2.5165 -0.0957
86 1 Ar 4.72565 3.48305 4.54990 0 0 -1 0.7371 0.5840 -2.5633
87 1 Ar 4.07025 4.30871 2.45391 0 0 0 -0.1059 -0.0083 -0.3770
88 1 Ar 4.32152 4.52364 4.39628 0 0 -1 -1.5851 0.7428 0.9264
89 1 Ar 1.68769 3.00311 0.72094 0 -1 0 1.2995 -1.2457 0.5388
90 1 Ar 4.45617 3.63072 1.86936 0 0 0 -1.6963 -0.4949 2.7838
91 1 Ar 0.09788 4.94660 4.10826 1 -1 0 0.4038 0.2517 -0.4062
92 1 Ar 2.09916 1.56530 0.23737 0 0 0 -1.6151 -1.3240 -0.3783
93 1 Ar 1.36965 1.71888 2.66703 0 0 0 -1.2297 -0.1356 -0.0833
94 1 Ar 3.07055 4.41892 4.05130 0 0 0 -0.6163 1.8793 -0.2370
95 1 Ar 1.22595 4.74167 4.73910 1 -1 0 -0.2590 -0.3631 1.3253
96 1 Ar 3.58337 3.11800 2.19189 0 0 0 -1.1030 -0.2615 2.0431
97 1 Ar 3.81924 4.59425 3.43550 0 0 -1 -0.0588 0.4010 -0.0098
98 1 Ar 0.13825 1.02586 3.72647 1 1 -1 0.1325 -2.4399 -1.5811
99 1 Ar 4.33401 4.09168 0.43130 0 0 0 1.7002 0.1948 1.5869
100 1 Ar 2.87878 1.97457 4.41918 0 1 -1 0.4237 0.5237 -0.1100
101 1 Ar 2.44946 3.48312 1.18311 0 0 0 -1.4642 0.3725 1.2575
102 1 Ar 2.79335 4.17708 0.36990 0 0 0 0.3847 0.0155 1.5530
103 1 Ar 3.15023 4.19653 1.83653 0 0 0 -1.1959 -0.9415 -0.5771
104 1 Ar 2.06533 3.84092 3.40001 0 0 0 -1.4149 -0.7713 -0.0243
105 1 Ar 0.79742 3.70351 3.88808 1 0 0 1.3897 0.7617 -0.2810
106 1 Ar 3.23682 0.77541 4.21437 1 1 0 -0.0119 0.5058 -0.0662
107 1 Ar 3.98029 1.18799 2.76316 0 0 0 0.6183 2.3302 0.9091
108 1 Ar 3.91860 0.20065 2.05346 0 1 0 -0.9914 1.0823 -0.0133
ITEM: TIMESTEP
1880
ITEM: NUMBER OF ATOMS
108
ITEM: BOX BOUNDS pp pp pp
0.0000000000000000e+00 5.0387885741475218e+00
0.0000000000000000e+00 5.0387885741475218e+00
0.0000000000000000e+00 5.0387885741475218e+00
ITEM: ATOMS id type element x y z ix iy iz vx vy vz
1 1 Ar 1.02283 0.54725 4.15126 0 0 -1 0.4739 1.1661 3.3675
2 1 Ar 0.04311 0.73130 1.11545 0 0 0 0.9022 0.2470 1.0873
3 1 Ar 0.30454 4.09205 1.04723 0 -1 0 1.5609 1.0969 0.5349
4 1 Ar 1.01706 4.99228 0.79609 0 -1 0 1.4088 0.9975 0.0675
5 1 Ar 3.21074 1.60118 0.94913 -1 0 0 0.0166 -1.2646 -0.6218
6 1 Ar 1.90242 2.03159 1.37217 -1 0 0 -1.3032 -2.0441 0.8981
7 1 Ar 1.42323 4.22059 2.83236 0 -1 0 0.4106 -0.7114 -0.0115
8 1 Ar 3.19088 2.13518 2.56355 -1 0 0 -2.6303 0.4124 -0.0345
9 1 Ar 0.18740 4.12463 5.00805 0 -1 0 -0.5332 -1.8060 1.2262
10 1 Ar 3.88908 4.76547 0.34066 0 -1 1 -0.5621 -0.8188 1.3700
11 1 Ar 1.49214 4.02812 1.15859 0 -1 1 0.9037 0.6448 -0.4778
12 1 Ar 4.26755 0.30124 4.68346 -1 0 0 -0.6852 -1.5042 0.4329
13 1 Ar 4.08796 2.65775 0.86428 -1 0 0 0.9044 0.0923 2.2569
14 1 Ar 4.49588 1.72289 0.99755 -1 0 0 -2.1467 -0.7277 -1.6587
15 1 Ar 0.47285 3.60190 3.23665 0 0 0 -0.7092 0.6552 2.3552
16 1 Ar 4.54495 1.31880 1.96407 -1 1 0 2.9974 -0.5005 2.8303
17 1 Ar 0.38488 2.56463 2.93209 0 0 0 -1.4231 1.3283 0.8624
18 1 Ar 1.62441 3.16673 1.69190 0 0 0 -0.3180 -2.4725 1.3053
19 1 Ar 1.51446 0.92513 1.97368 0 0 0 2.1651 0.8413 1.4995
20 1 Ar 4.99918 2.26806 0.07726 -1 0 1 -1.2779 -3.3272 -0.8117
21 1 Ar 0.67788 0.27770 1.84871 0 0 0 -0.4181 -0.1837 -1.8883
22 1 Ar 4.97686 2.54279 4.03900 -1 0 0 -2.2653 -1.1725 -1.8151
23 1 Ar 0.66414 2.63339 1.79997 0 0 1 -0.8899 0.1220 0.8893
24 1 Ar 3.71119 3.65806 4.06728 -1 0 0 -1.6653 -1.2151 -0.7299
25 1 Ar 3.34419 3.62072 0.05506 -1 0 0 0.8675 1.3422 0.2627
26 1 Ar 2.19524 1.87139 2.45055 0 0 -1 -3.2517 1.7223 -0.7308
27 1 Ar 0.52829 3.08999 4.97159 0 0 -1 0.9405 -0.5819 -0.9641
28 1 Ar 0.82572 3.78457 2.12597 0 0 0 -2.1455 0.6365 -1.0295
29 1 Ar 4.78320 4.88692 1.54387 -1 0 0 -0.6246 -0.3744 0.3306
30 1 Ar 0.44727 1.57254 1.57370 0 1 0 -1.3426 -1.8301 -2.2555
31 1 Ar 1.52322 0.57988 3.21754 0 1 0 1.2808 2.2310 1.0795
32 1 Ar 3.89360 4.60571 1.33044 -1 0 0 -1.8547 -0.5790 -0.0982
33 1 Ar 2.52561 2.91100 2.55914 -1 0 0 -0.2604 -0.4358 -0.3661
34 1 Ar 0.36309 1.46178 0.52211 0 0 0 -0.9618 0.2206 -0.9950
35 1 Ar 1.09524 2.79316 3.85163 0 0 0 -0.2751 -0.2248 2.3563
36 1 Ar 4.68909 4.46475 3.29634 -1 0 0 -1.6816 0.5437 -0.3016
37 1 Ar 3.89786 1.59011 4.04725 0 0 -1 1.3214 -0.9308 0.5895
38 1 Ar 3.33205 0.64885 0.07128 0 0 0 1.1500 -0.9995 -0.5263
39 1 Ar 2.43003 2.46837 0.02643 0 -1 0 0.0149 -0.6467 -1.3053
40 1 Ar 1.88350 4.40434 0.25817 0 -1 0 -0.1001 0.4296 -2.1245
41 1 Ar 2.08400 3.74735 2.24473 0 -1 0 -0.0256 -1.7874 -1.8532
42 1 Ar 4.08137 0.62615 3.68958 0 0 0 -0.1184 1.3049 -0.4084
43 1 Ar 4.69482 0.57916 2.69856 0 0 0 1.1185 2.9612 -0.6657
44 1 Ar 1.90841 0.12517 2.39617 0 0 0 0.9010 -1.2393 -0.6535
45 1 Ar 2.70117 0.94991 3.08091 0 0 0 0.4763 0.7746 -1.7481
46 1 Ar 2.92020 0.45356 2.25678 0 0 0 0.5459 -1.2475 0.3274
47 1 Ar 1.71461 3.36646 4.90541 0 -1 0 -0.2969 -1.1835 -1.4708
48 1 Ar 4.87834 4.93330 0.54347 -1 -1 1 1.8799 -0.9831 -0.2756
49 1 Ar 2.29157 0.28535 0.37120 0 0 0 -1.0412 0.4217 0.3322
50 1 Ar 2.73731 3.26919 4.22672 0 0 -1 -0.5789 0.1219 0.0819
51 1 Ar 5.01015 3.14512 1.06178 0 0 0 1.1614 0.0619 1.3533
52 1 Ar 3.74749 1.89229 1.65824 0 0 0 0.6211 2.0604 0.4578
53 1 Ar 2.24740 4.79305 1.38578 0 -1 0 -0.3702 1.4577 -1.9291
54 1 Ar 2.87869 1.47810 1.82087 0 0 0 -0.8055 0.6352 -0.5664
55 1 Ar 3.70458 3.57571 1.18081 0 -1 0 0.2439 -1.6349 0.9341
56 1 Ar 1.27306 3.10275 2.81038 0 0 0 -0.5949 0.3958 -0.6039
57 1 Ar 2.39439 1.47375 3.83723 0 0 0 -0.3373 -1.5266 1.4390
58 1 Ar 1.23686 1.52394 3.51823 0 0 0 -0.2709 0.8398 0.4501
59 1 Ar 0.42011 0.53326 5.00773 0 0 0 -1.8677 -1.5329 0.4046
60 1 Ar 4.08990 2.83507 4.66749 -1 0 0 1.7293 1.6292 1.0023
61 1 Ar 1.43929 1.05555 4.84808 0 0 -1 0.3266 1.2761 -0.0170
62 1 Ar 0.48699 2.34923 0.91157 0 0 0 1.6799 0.8392 -1.2562
63 1 Ar 3.02936 2.70237 1.43634 0 0 0 -0.5618 0.8195 -1.1136
64 1 Ar 2.33530 0.84414 1.35737 0 0 0 -2.3377 3.5130 -0.7457
65 1 Ar 1.66724 2.19835 4.49148 0 0 0 -0.8485 -0.4012 -0.5411
66 1 Ar 3.30130 3.74214 3.11671 0 0 0 -0.9902 -1.9638 0.5192
67 1 Ar 2.19356 0.35170 4.16967 0 1 0 2.0049 0.3171 1.6356
68 1 Ar 4.25503 2.44894 3.30260 -1 0 0 2.7981 -0.6143 0.6447
69 1 Ar 1.19453 2.08509 0.31894 0 0 1 -0.2258 -0.3517 1.9519
70 1 Ar 2.09269 4.18050 4.34767 0 0 0 0.7537 0.1660 -2.9048
71 1 Ar 1.46684 1.11512 0.74743 0 0 1 0.3850 0.4135 2.7079
72 1 Ar 1.53538 4.67778 3.72233 0 0 0 1.7521 0.0116 0.8806
73 1 Ar 3.11343 0.12571 1.03299 0 0 0 1.3167 1.9170 1.9705
74 1 Ar 0.22196 1.59406 2.71629 1 0 -1 0.5820 0.0717 -2.0619
75 1 Ar 0.70055 1.71044 4.58929 1 0 -1 0.3608 0.4247 -0.8228
76 1 Ar 4.52443 3.48694 3.07674 0 0 -1 0.7968 -1.0428 0.2157
77 1 Ar 3.98410 0.81333 0.94187 0 0 0 -0.4868 1.2453 -1.4425
78 1 Ar 3.81718 1.75419 0.19058 0 0 0 1.6258 -1.5163 1.2043
79 1 Ar 0.03059 4.29543 2.34170 1 -1 0 -0.3418 -0.9943 1.8848
80 1 Ar 3.23370 2.66895 3.62704 0 0 0 -0.8141 0.1663 -0.2542
81 1 Ar 2.53108 4.45329 2.80686 0 -1 0 1.4267 -1.1408 2.1103
82 1 Ar 4.50153 2.45597 2.30258 0 0 0 0.2279 -1.6056 0.3759
83 1 Ar 0.63083 4.98662 3.00666 1 -1 0 1.2107 0.9179 -0.7836
84 1 Ar 4.71498 1.40795 4.54711 0 0 0 -2.9630 0.8673 -1.8009
85 1 Ar 2.05066 2.45760 3.36525 0 0 -1 -1.3053 -0.8817 -1.4952
86 1 Ar 4.83362 3.69753 4.03331 0 0 -1 1.1678 1.5946 -2.3006
87 1 Ar 3.90293 4.57440 2.33404 0 0 0 0.7796 1.2237 0.0266
88 1 Ar 4.11975 4.48991 4.33758 0 0 -1 0.6682 -0.5575 -2.1012
89 1 Ar 1.83470 2.99066 0.76461 0 -1 0 -0.4886 1.5549 0.9256
90 1 Ar 4.47796 3.67118 1.78455 0 0 0 0.8382 1.4009 -1.2084
91 1 Ar 0.01709 4.81177 4.12471 1 -1 0 -1.3467 0.2347 0.2380
92 1 Ar 2.41211 1.41594 0.38799 0 0 0 1.4274 -0.7501 -0.4489
93 1 Ar 1.13134 1.98365 2.31986 0 0 0 0.9320 1.4092 -2.1392
94 1 Ar 2.98582 4.80663 4.14770 0 0 0 -0.3981 1.7676 1.2200
95 1 Ar 1.08113 4.67348 4.68250 1 -1 0 0.5288 -0.4506 1.1451
96 1 Ar 3.57578 3.15550 2.18643 0 0 0 2.0267 -2.0108 -1.0520
97 1 Ar 3.69376 4.64904 3.39857 0 0 -1 -0.7621 1.5820 0.5322
98 1 Ar 0.25650 0.81597 3.46804 1 1 -1 -2.0873 -0.7997 -1.0222
99 1 Ar 4.32986 3.82501 0.40963 0 0 0 -0.3422 -3.0916 -1.2416
100 1 Ar 3.01336 1.94204 4.44264 0 1 -1 -0.4753 -0.2801 -0.7518
101 1 Ar 2.49457 3.69084 1.27077 0 0 0 1.2806 -0.3094 -0.3373
102 1 Ar 2.86183 4.29829 0.61532 0 0 0 2.2232 -0.3405 -0.2720
103 1 Ar 3.03408 4.22122 1.93564 0 0 0 -1.7544 2.2426 0.8211
104 1 Ar 2.16609 3.46628 3.35360 0 0 0 1.3369 0.0284 1.5424
105 1 Ar 0.86759 3.98792 3.99404 1 0 0 -0.3087 0.8505 2.8660
106 1 Ar 3.16675 0.84592 3.96709 1 1 0 -1.7551 -0.1388 -0.8025
107 1 Ar 4.02054 1.33424 3.04365 0 0 0 0.9293 -0.2658 0.8711
108 1 Ar 3.88764 0.51188 1.96474 0 1 0 -1.1557 0.7447 -0.8359
ITEM: TIMESTEP
1920
ITEM: NUMBER OF ATOMS
108
ITEM: BOX BOUNDS pp pp pp
0.0000000000000000e+00 5.0387885741475218e+00
0.0000000000000000e+00 5.0387885741475218e+00
0.0000000000000000e+00 5.0387885741475218e+00
ITEM: ATOMS id type element x y z ix iy iz vx vy vz
1 1 Ar 1.04145 0.62352 4.14960 0 0 -1 1.1764 0.5976 -0.7636
2 1 Ar 4.97482 0.58173 1.03976 -1 0 0 1.7148 0.2607 -0.1736
3 1 Ar 0.65020 4.43343 1.12075 0 -1 0 0.7594 2.1731 -0.4073
4 1 Ar 1.32056 0.09631 0.88050 0 0 0 1.2621 -2.4123 0.3823
5 1 Ar 3.31921 1.51747 0.92572 -1 0 0 1.4689 0.3031 -0.1772
6 1 Ar 1.78060 1.77136 1.46110 -1 0 0 -0.7421 0.0298 2.1622
7 1 Ar 1.45580 4.17187 2.90782 0 -1 0 0.8477 0.8211 1.2010
8 1 Ar 3.30781 2.00593 2.72672 -1 0 0 2.1166 -0.8884 -0.5616
9 1 Ar 0.22164 3.84203 0.09882 0 -1 1 0.0819 -0.8087 1.4334
10 1 Ar 3.94645 4.61109 0.23354 0 -1 1 -1.4446 -2.0451 -0.5609
11 1 Ar 1.62225 4.06546 1.15000 0 -1 1 0.7685 -0.1034 -0.0383
12 1 Ar 4.28259 0.36057 4.79796 -1 0 0 -1.0108 -1.0194 -1.7713
13 1 Ar 4.30352 2.66060 1.07104 -1 0 0 1.2999 -0.3541 0.8433
14 1 Ar 4.64680 1.68491 0.84428 -1 0 0 -2.3722 -2.2464 -1.0591
15 1 Ar 0.61830 3.73944 3.21001 0 0 0 -0.3754 -0.2569 1.3516
16 1 Ar 4.57137 1.39965 1.83620 -1 1 0 1.3656 -1.1497 -2.0958
17 1 Ar 0.20872 2.70601 3.16024 0 0 0 -0.5634 -0.2907 0.7452
18 1 Ar 1.63570 2.82548 1.73331 0 0 0 2.0093 2.1617 -1.6458
19 1 Ar 1.66473 1.14506 2.32671 0 0 0 -0.1904 0.3771 -0.8448
20 1 Ar 4.74081 2.24791 0.11747 -1 0 1 0.3681 2.6412 -1.9392
21 1 Ar 0.83867 0.14779 1.79765 0 0 0 0.9124 -0.5582 1.0354
22 1 Ar 0.02850 2.51223 4.14592 0 0 0 -0.2174 0.9122 -0.2618
23 1 Ar 0.27791 3.01984 2.11119 0 0 1 -1.0401 1.4184 1.7146
24 1 Ar 3.60264 3.30915 3.89656 -1 0 0 -0.2216 0.4231 -2.2524
25 1 Ar 3.44192 3.65659 4.95603 -1 0 -1 0.4266 0.6811 0.1638
26 1 Ar 2.14933 2.04274 2.47140 0 0 -1 -0.2514 0.6659 0.3298
27 1 Ar 0.64630 2.87107 4.98462 0 0 -1 0.2363 -1.1232 -0.0115
28 1 Ar 0.91670 3.75919 1.93733 0 0 0 3.4162 1.8640 0.3588
29 1 Ar 4.72443 4.93745 1.73157 -1 0 0 0.5812 1.1559 -0.3719
30 1 Ar 0.31599 1.73255 1.46023 0 1 0 -0.3652 1.3571 1.0685
31 1 Ar 1.77513 0.81755 3.17623 0 1 0 0.2948 -0.8231 -0.5555
32 1 Ar 3.69871 4.49034 1.45228 -1 0 0 0.6773 1.7521 -0.7274
33 1 Ar 2.40320 2.97614 2.40942 -1 0 0 -0.8357 0.5398 -1.7253
34 1 Ar 0.41561 1.45033 0.29218 0 0 0 0.5425 2.2543 -0.4062
35 1 Ar 0.89855 2.90073 3.77506 0 0 0 0.3378 0.6765 -2.6100
36 1 Ar 4.46259 4.65826 3.43615 -1 0 0 0.7351 -1.3180 0.2393
37 1 Ar 3.73872 1.61525 3.66732 0 0 -1 -0.6396 -1.0677 -1.8764
38 1 Ar 3.19815 0.60092 5.02395 0 0 -1 -0.8281 0.4771 0.7366
39 1 Ar 2.44331 2.51195 0.23394 0 -1 0 2.9594 0.7816 2.0669
40 1 Ar 2.11126 4.23391 0.12169 0 -1 0 0.4564 -1.4312 -0.3186
41 1 Ar 1.90363 3.81846 2.09716 0 -1 0 -3.2984 -1.8440 -0.9583
42 1 Ar 4.24083 0.53641 3.79999 0 0 0 -0.3946 2.0433 1.2221
43 1 Ar 4.77062 0.30569 2.62349 0 0 0 1.1493 -1.0613 0.7572
44 1 Ar 1.93865 4.81567 2.30894 0 -1 0 -0.4037 0.1675 -0.1324
45 1 Ar 2.65577 1.22916 2.84913 0 0 0 -0.7059 0.9445 1.2443
46 1 Ar 2.98083 0.46635 2.29229 0 0 0 0.6939 1.6122 0.8921
47 1 Ar 1.64865 3.21279 4.51978 0 -1 0 0.9058 0.7008 -0.7298
48 1 Ar 4.85673 4.64380 0.60099 -1 -1 1 -0.2740 -0.9354 0.5667
49 1 Ar 2.12550 0.42769 0.40370 0 0 0 -0.1640 -0.1193 0.3204
50 1 Ar 2.69296 3.08593 4.47455 0 0 -1 0.9283 -0.5927 -0.6992
51 1 Ar 0.19442 3.39420 1.15299 1 0 0 3.4561 1.2640 0.3866
52 1 Ar 3.66204 1.98841 1.75652 0 0 0 0.5415 -0.2053 -0.3467
53 1 Ar 2.16022 4.97172 1.30580 0 -1 0 1.1291 0.3065 2.6509
54 1 Ar 2.89909 1.44087 1.84754 0 0 0 -0.5092 -2.0075 -0.9959
55 1 Ar 3.54700 3.39429 1.16990 0 -1 0 -0.0792 -1.2802 -0.3410
56 1 Ar 1.33803 3.04545 2.74748 0 0 0 0.3006 -0.9356 -0.0874
57 1 Ar 2.08003 1.40857 4.01142 0 0 0 0.8481 1.1700 0.8925
58 1 Ar 1.02903 1.76711 3.47526 0 0 0 -0.4945 0.6609 -0.7637
59 1 Ar 0.25979 0.46650 0.01094 0 0 1 -0.2253 0.0715 2.0638
60 1 Ar 4.25847 2.95105 4.50521 -1 0 0 0.3107 0.3238 -1.0101
61 1 Ar 1.38780 1.19343 4.86167 0 0 -1 -2.8105 0.2211 0.9095
62 1 Ar 0.57592 2.43445 0.76681 0 0 0 0.6377 -0.3452 0.0442
63 1 Ar 2.82877 2.42147 1.24041 0 0 0 -1.5096 -2.6687 -0.7351
64 1 Ar 2.23465 1.03996 1.12438 0 0 0 -1.2681 0.0372 -1.3937
65 1 Ar 1.63988 2.29649 4.44910 0 0 0 -0.5973 0.9279 1.4684
66 1 Ar 3.24000 3.37720 2.83826 0 0 0 1.0732 -0.4312 -1.4863
67 1 Ar 2.04827 0.43774 4.42223 0 1 0 -0.3271 -1.8961 -1.8145
68 1 Ar 4.12008 2.44275 3.25564 -1 0 0 -1.0940 1.9162 0.4114
69 1 Ar 1.64053 2.07306 0.54571 0 0 1 -1.7321 -0.9980 1.2073
70 1 Ar 2.42377 4.25641 4.21934 0 0 0 0.2527 0.3954 2.0297
71 1 Ar 1.00368 1.01069 1.01756 0 0 1 -1.3424 0.8678 0.7631
72 1 Ar 1.58780 4.96106 3.63741 0 0 0 0.2927 -0.2267 -0.2392
73 1 Ar 3.20078 0.47489 1.20819 0 0 0 1.0213 -0.9361 -0.8618
74 1 Ar 0.28071 1.47421 2.96817 1 0 -1 -3.2200 -1.8085 1.9758
75 1 Ar 0.62702 1.70606 4.43981 1 0 -1 1.0880 -0.6400 0.4544
76 1 Ar 4.40634 3.38922 2.93426 0 0 -1 0.8592 2.3568 1.2025
77 1 Ar 4.06861 0.71474 0.60247 0 0 0 -1.2353 0.2373 -0.5123
78 1 Ar 3.86434 1.46746 4.73147 0 0 -1 -1.1257 -1.8008 -2.9320
79 1 Ar 0.10341 4.30826 2.58724 1 -1 0 0.6545 1.0029 0.1652
80 1 Ar 3.07675 2.51927 3.65381 0 0 0 -2.1130 -1.0087 1.5566
81 1 Ar 2.55722 4.39686 3.25339 0 -1 0 -1.4770 -0.0889 -1.1224
82 1 Ar 4.69110 2.17822 2.36827 0 0 0 -0.5750 -0.8738 2.3148
83 1 Ar 0.86429 0.08175 2.84124 1 0 0 0.9222 0.8063 -0.6704
84 1 Ar 4.80344 1.19938 4.47052 0 0 0 -0.9430 1.5197 0.9672
85 1 Ar 1.84847 2.43860 3.42972 0 0 -1 0.4352 1.1890 0.9313
86 1 Ar 4.93016 3.73719 4.09014 0 0 -1 0.4633 -0.9592 0.2478
87 1 Ar 3.98574 4.72617 2.48104 0 0 0 -1.8379 -0.2328 0.4134
88 1 Ar 3.96580 4.29658 4.28703 0 0 -1 0.7013 -1.8995 0.5295
89 1 Ar 1.73014 3.10905 0.71198 0 -1 0 -1.2879 0.7158 -0.5403
90 1 Ar 4.44773 3.87765 1.78693 0 0 0 -0.8463 -1.3084 0.8794
91 1 Ar 0.16712 4.87017 4.14971 1 -1 0 0.8976 -1.4255 -1.2294
92 1 Ar 2.70729 1.38808 0.09584 0 0 0 0.8827 0.1979 0.3543
93 1 Ar 1.00887 1.97963 2.21538 0 0 0 0.6037 0.2362 2.4034
94 1 Ar 3.15896 4.77688 4.61185 0 0 0 -1.3057 -0.3373 2.9819
95 1 Ar 0.99532 4.86415 4.97043 1 -1 0 0.7971 -1.3622 -0.2505
96 1 Ar 3.89603 2.99604 2.16655 0 0 0 0.0147 -0.6522 -2.0845
97 1 Ar 3.36684 0.09621 3.28074 0 1 -1 -0.6297 3.2440 -1.1409
98 1 Ar 0.24034 0.79348 3.60345 1 1 -1 1.2516 -1.0005 -2.5439
99 1 Ar 4.33855 3.59478 0.57269 0 0 0 -1.8526 1.4460 0.4451
100 1 Ar 2.89890 2.02646 4.43180 0 1 -1 -0.6107 1.7086 -1.4255
101 1 Ar 2.50604 3.66024 1.17568 0 0 0 -1.0156 0.1040 -0.6499
102 1 Ar 2.88042 4.57688 0.73018 0 0 0 0.6097 1.9977 0.8166
103 1 Ar 2.83601 4.33335 1.93193 0 0 0 -0.2199 -0.4738 0.0192
104 1 Ar 2.11917 3.38805 3.32316 0 0 0 -1.0755 -0.8665 -0.2846
105 1 Ar 0.95941 3.86631 4.36471 1 0 0 0.8674 0.3986 -0.2129
106 1 Ar 3.11120 0.76757 3.94925 1 1 0 -0.2875 0.2444 0.2791
107 1 Ar 4.06733 1.34231 2.64643 0 0 0 -1.0132 -2.0754 -1.2886
108 1 Ar 3.97155 0.62985 1.82530 0 1 0 -0.4051 -2.1658 0.0384
ITEM: TIMESTEP
1960
ITEM: NUMBER OF ATOMS
108
ITEM: BOX BOUNDS pp pp pp
0.0000000000000000e+00 5.0387885741475218e+00
0.0000000000000000e+00 5.0387885741475218e+00
0.0000000000000000e+00 5.0387885741475218e+00
ITEM: ATOMS id type element x y z ix iy iz vx vy vz
1 1 Ar 1.22850 0.76653 4.17065 0 0 -1 0.3888 0.7963 1.4054
2 1 Ar 0.23105 0.61464 1.06293 0 0 0 1.5597 -1.0428 -0.7089
3 1 Ar 0.58237 4.57174 1.01766 0 -1 0 1.6228 1.1223 -2.0006
4 1 Ar 1.49989 0.18152 0.86290 0 0 0 -1.0547 -0.1514 0.7778
5 1 Ar 3.31544 1.56665 0.72769 -1 0 0 -1.4914 1.4476 -2.2078
6 1 Ar 1.48537 2.02834 1.68224 -1 0 0 -1.3151 0.5703 1.5802
7 1 Ar 1.29481 3.94940 2.87784 0 -1 0 -0.0957 0.9129 0.5556
8 1 Ar 3.37493 2.12456 2.40861 -1 0 0 -1.1911 0.1411 -3.3071
9 1 Ar 0.31696 3.67627 0.17521 0 -1 1 0.7406 -0.6232 -0.3646
10 1 Ar 3.66302 4.56497 0.21981 0 -1 1 -2.7533 -0.6854 -2.0157
11 1 Ar 1.49755 4.07701 1.21926 0 -1 1 1.2763 1.1988 0.8116
12 1 Ar 4.19482 0.03750 4.56572 -1 0 0 0.5524 0.7052 -1.6862
13 1 Ar 4.74732 2.58492 1.17094 -1 0 0 2.6608 -0.2658 0.4771
14 1 Ar 4.41924 1.71876 0.52115 -1 0 0 -1.3876 1.4591 -1.0621
15 1 Ar 0.42379 3.76885 3.28291 0 0 0 -1.4426 -0.2422 0.1342
16 1 Ar 4.57716 1.08710 1.81134 -1 1 0 1.2425 -0.9042 1.8655
17 1 Ar 0.11493 2.65250 3.02348 0 0 0 0.5639 -0.5320 -1.1757
18 1 Ar 1.72963 3.09248 1.33747 0 0 0 -1.6738 0.6918 -0.8258
19 1 Ar 1.59717 0.83106 2.11252 0 0 0 0.6695 -0.0658 -0.4476
20 1 Ar 4.86954 2.60151 0.12683 -1 0 1 0.6451 1.8381 0.8653
21 1 Ar 0.97279 0.14500 1.77678 0 0 0 -0.3818 -0.7018 -1.0131
22 1 Ar 0.05934 2.53656 4.10319 0 0 0 -1.0426 -0.7848 0.5647
23 1 Ar 0.13739 3.34020 2.25008 0 0 1 1.1941 1.4812 -1.0806
24 1 Ar 3.45005 3.77935 3.60783 -1 0 0 -1.2754 3.6905 -0.5757
25 1 Ar 3.28716 3.60727 0.07445 -1 0 0 -0.6310 1.4990 1.5799
26 1 Ar 2.06695 2.05325 2.66212 0 0 -1 -0.5555 -0.3620 0.7712
27 1 Ar 0.85642 2.87799 4.62933 0 0 -1 -0.9056 -0.3233 -1.6903
28 1 Ar 0.88221 4.12513 2.02688 0 0 0 1.2183 1.4557 0.3038
29 1 Ar 4.86191 4.83053 1.72080 -1 0 0 -0.1025 -0.2276 0.7540
30 1 Ar 0.38871 1.90034 1.71071 0 1 0 -2.9348 -0.2342 -1.8488
31 1 Ar 1.85653 0.72719 3.29609 0 1 0 0.9826 -0.0557 -0.0932
32 1 Ar 3.90799 4.51058 1.28258 -1 0 0 0.2584 -2.8926 0.0456
33 1 Ar 2.71307 2.80490 2.11662 -1 0 0 0.7998 -0.8810 -4.1893
34 1 Ar 0.41229 1.71083 0.43734 0 0 0 2.0701 0.1148 0.4157
35 1 Ar 1.26389 2.96894 3.75285 0 0 0 1.4696 -0.3212 -1.8941
36 1 Ar 4.53909 4.75853 3.48139 -1 0 0 -0.5623 3.2483 1.2125
37 1 Ar 3.54921 1.64933 3.40126 0 0 -1 1.0842 2.0363 0.2388
38 1 Ar 3.14224 0.67741 0.10197 0 0 0 0.5667 0.9946 -0.3625
39 1 Ar 2.93511 2.77925 0.38723 0 -1 0 0.5893 -0.2485 0.0104
40 1 Ar 2.09312 4.01783 0.26233 0 -1 0 -0.2482 0.2030 -1.3487
41 1 Ar 1.95605 4.00856 2.12732 0 -1 0 -0.0800 1.3308 -0.1839
42 1 Ar 4.34200 0.81054 3.66038 0 0 0 0.8423 -0.8913 1.3499
43 1 Ar 4.74493 0.39248 2.58440 0 0 0 -0.9998 0.8067 -1.8661
44 1 Ar 1.83956 5.02071 2.51527 0 -1 0 1.1828 -0.1242 0.2187
45 1 Ar 2.59395 1.38790 3.23842 0 0 0 -1.9245 0.5956 0.3385
46 1 Ar 2.97917 0.31911 2.32390 0 0 0 0.5744 -2.4390 2.3833
47 1 Ar 1.84974 3.37921 4.51031 0 -1 0 1.3416 -1.4140 -0.4025
48 1 Ar 4.75444 4.67581 0.59220 -1 -1 1 2.2817 -2.0565 -1.5035
49 1 Ar 2.26121 0.14781 0.20342 0 0 0 -0.5995 -1.5015 0.6860
50 1 Ar 2.87182 3.11787 4.14615 0 0 -1 0.3899 -0.0205 -2.6492
51 1 Ar 0.73004 3.57016 1.23337 1 0 0 0.0139 0.5588 1.1894
52 1 Ar 3.91759 1.75055 1.51459 0 0 0 -0.4325 -1.1807 -2.2503
53 1 Ar 2.30814 0.08871 1.57474 0 0 0 -2.7084 -0.5897 -0.1875
54 1 Ar 2.70634 1.23993 1.91983 0 0 0 -0.9934 -0.2154 2.4109
55 1 Ar 3.46385 3.10932 1.08619 0 -1 0 0.4758 -0.9933 -1.4052
56 1 Ar 1.34066 3.08477 2.52301 0 0 0 0.7945 0.0053 -2.1500
57 1 Ar 2.01050 1.38778 4.12947 0 0 0 -2.4567 -1.5883 1.6967
58 1 Ar 1.20867 1.75605 3.51385 0 0 0 1.9379 -1.6474 1.3630
59 1 Ar 0.27844 0.45227 5.00369 0 0 0 0.3575 -0.2698 -1.6373
60 1 Ar 3.96025 3.09807 4.41810 -1 0 0 -1.8683 -1.1856 -0.3545
61 1 Ar 1.31097 0.88342 0.21218 0 0 0 0.0152 -2.6550 0.7900
62 1 Ar 0.68352 2.60543 0.78533 0 0 0 -0.0801 -0.6497 -1.0830
63 1 Ar 2.49198 2.15824 1.38054 0 0 0 -1.6013 1.5151 -0.5676
64 1 Ar 1.98986 0.95137 1.08011 0 0 0 1.4348 -0.8606 0.8414
65 1 Ar 1.63309 2.12552 4.75727 0 0 0 1.2708 -0.2653 0.4429
66 1 Ar 3.49172 3.53852 2.57950 0 0 0 1.1234 2.6038 -0.0466
67 1 Ar 2.19566 0.09843 4.14053 0 1 0 -0.8074 -1.9049 -1.4464
68 1 Ar 4.01692 2.77398 3.37358 -1 0 0 -0.3824 0.5658 0.4644
69 1 Ar 1.43483 1.95416 0.68239 0 0 1 0.2640 0.2632 0.5853
70 1 Ar 2.32458 4.20784 3.95052 0 0 0 0.7251 0.2217 -2.3146
71 1 Ar 1.08412 1.19872 1.30789 0 0 1 -2.1662 0.4982 2.3184
72 1 Ar 1.42471 4.63857 3.75236 0 0 0 -3.4262 -1.7477 -0.0279
73 1 Ar 3.14413 0.71151 1.14876 0 0 0 0.4610 0.9129 0.0384
74 1 Ar 4.79367 1.31389 3.00503 0 0 -1 0.0708 0.8236 -0.4407
75 1 Ar 0.66087 1.72650 4.39967 1 0 -1 -0.3467 -1.0422 2.6817
76 1 Ar 4.52749 3.57148 3.01569 0 0 -1 -1.5354 -1.2135 -0.4881
77 1 Ar 4.17093 0.37196 0.68833 0 0 0 0.0372 0.9597 1.1791
78 1 Ar 3.70538 1.36509 4.57062 0 0 -1 1.1087 0.8672 0.6168
79 1 Ar 0.00991 4.48310 2.67245 1 -1 0 -1.4376 0.1260 1.7834
80 1 Ar 2.83990 2.69122 3.10669 0 0 0 0.2673 1.6102 -0.6127
81 1 Ar 2.55243 4.43808 2.95013 0 -1 0 1.6491 -0.0180 -0.9416
82 1 Ar 4.40609 2.16723 2.45399 0 0 0 1.5190 -1.5954 1.0890
83 1 Ar 0.94099 0.19857 2.99051 1 0 0 -1.7480 0.3620 1.1387
84 1 Ar 4.76772 1.45673 4.63683 0 0 0 -0.5275 0.8229 0.5291
85 1 Ar 2.06284 2.31273 3.71899 0 0 -1 1.7933 0.6226 1.6646
86 1 Ar 5.02003 3.50702 4.22270 0 0 -1 0.4699 -0.7553 1.4167
87 1 Ar 3.73122 4.50777 2.61759 0 0 0 1.7013 -0.4424 2.9092
88 1 Ar 4.16847 4.15552 4.34558 0 0 -1 0.6264 0.5290 0.6399
89 1 Ar 1.37622 3.22127 0.30539 0 -1 0 -1.1470 1.0033 0.7135
90 1 Ar 4.40839 3.90129 1.88537 0 0 0 -0.6567 2.4163 -0.1836
91 1 Ar 0.26385 4.56799 4.19614 1 -1 0 -0.9287 -1.6011 1.9106
92 1 Ar 2.35236 1.67185 0.34617 0 0 0 -1.8275 2.2330 -0.3561
93 1 Ar 1.04039 2.10867 2.57591 0 0 0 0.5002 0.6585 1.9134
94 1 Ar 2.86353 4.56884 4.67831 0 0 0 -0.3245 -1.4410 -1.2017
95 1 Ar 1.28624 4.69459 4.95559 1 -1 0 1.7415 0.0203 0.3104
96 1 Ar 3.90496 2.95714 1.90762 0 0 0 0.3714 0.1311 -1.3480
97 1 Ar 3.40138 0.42079 3.37383 0 1 -1 -0.4612 -0.3730 2.1848
98 1 Ar 0.26341 0.46371 3.69718 1 1 -1 -0.8092 1.2056 1.6684
99 1 Ar 4.39331 3.54929 0.73404 0 0 0 1.1431 -1.3607 1.2415
100 1 Ar 2.91886 2.12142 4.48118 0 1 -1 0.5614 0.1283 -0.2481
101 1 Ar 2.51310 3.56158 1.06826 0 0 0 1.0449 0.1161 -0.0009
102 1 Ar 2.77785 4.48502 0.86974 0 0 0 -1.0448 -0.8192 2.0937
103 1 Ar 3.01949 4.22796 1.97253 0 0 0 0.2815 -0.8489 -2.2396
104 1 Ar 2.18938 3.41053 3.39644 0 0 0 0.4524 -1.7711 -0.5456
105 1 Ar 1.07247 3.80277 4.15395 1 0 0 1.3315 -1.8364 -0.7150
106 1 Ar 2.91142 0.90828 4.05866 1 1 0 1.7107 1.2665 0.2848
107 1 Ar 3.90780 0.92425 2.67242 0 0 0 -1.5299 0.6494 0.2158
108 1 Ar 3.95107 0.28159 1.86494 0 1 0 -0.1270 -1.1725 -0.3758
ITEM: TIMESTEP
2000
ITEM: NUMBER OF ATOMS
108
ITEM: BOX BOUNDS pp pp pp
0.0000000000000000e+00 5.0387885741475218e+00
0.0000000000000000e+00 5.0387885741475218e+00
0.0000000000000000e+00 5.0387885741475218e+00
ITEM: ATOMS id type element x y z ix iy iz vx vy vz
1 1 Ar 1.22504 0.60777 4.27815 0 0 -1 0.2490 1.3731 -0.5890
2 1 Ar 0.32028 0.34770 0.81355 0 0 0 0.2881 -1.4779 0.9685
3 1 Ar 0.71147 4.40165 0.71462 0 -1 0 1.0715 1.0678 -0.5824
4 1 Ar 1.50770 0.29702 0.99355 0 0 0 0.0597 0.8789 1.7147
5 1 Ar 3.26080 1.82739 0.42857 -1 0 0 -1.3623 0.6372 1.0083
6 1 Ar 1.26441 2.11869 1.88665 -1 0 0 -1.5906 -0.4072 0.1218
7 1 Ar 1.44586 4.01543 3.07920 0 -1 0 -1.7810 -1.4704 -0.1426
8 1 Ar 3.26677 1.99949 1.99297 -1 0 0 -0.5670 0.1758 -1.7411
9 1 Ar 0.42734 3.57588 0.09493 0 -1 1 -0.4219 -1.4838 -2.4688
10 1 Ar 3.65815 4.90278 0.20153 0 -1 1 -0.6039 -0.4890 0.9015
11 1 Ar 1.88849 4.21860 1.01474 0 -1 1 -0.3771 1.6308 -0.0778
12 1 Ar 4.36870 0.43275 4.76476 -1 0 0 1.5107 3.5200 1.2865
13 1 Ar 4.79292 2.78667 1.25330 -1 0 0 -0.5899 1.7744 -1.1280
14 1 Ar 4.34590 2.12570 0.41546 -1 0 0 0.8342 1.0642 0.8498
15 1 Ar 0.38812 3.59674 3.46721 0 0 0 1.5874 -0.1520 0.8984
16 1 Ar 4.60312 0.87017 1.87602 -1 1 0 -1.2291 -2.4124 -0.0873
17 1 Ar 0.04863 2.75612 3.01276 0 0 0 -1.5906 -0.5349 0.6037
18 1 Ar 1.50891 2.95085 1.19649 0 0 0 0.4114 -1.0000 -1.0373
19 1 Ar 1.64174 0.99896 2.16863 0 0 0 -0.3997 0.4049 0.9488
20 1 Ar 4.79693 2.82861 0.10912 -1 0 1 -0.7107 1.0559 0.3248
21 1 Ar 0.81908 0.29833 1.98281 0 0 0 -0.0898 -0.6455 1.3165
22 1 Ar 4.64397 2.18918 3.94837 -1 0 0 -2.6453 -1.1117 -1.5126
23 1 Ar 0.31277 3.45140 2.34299 0 0 1 0.0373 -0.2333 1.5332
24 1 Ar 3.46807 4.23275 3.76978 -1 0 0 1.6374 -1.9597 0.6620
25 1 Ar 3.15897 3.68732 0.10712 -1 0 0 1.8367 0.3731 -2.4972
26 1 Ar 2.04968 2.25877 2.65118 0 0 -1 0.6495 0.4361 0.1732
27 1 Ar 0.58704 2.61070 4.52648 0 0 -1 -2.6847 -1.6146 -0.2297
28 1 Ar 0.98375 4.27176 2.15230 0 0 0 1.0314 0.4256 0.5279
29 1 Ar 5.00692 4.81949 1.58487 -1 0 0 0.0767 -0.7769 -0.6633
30 1 Ar 0.20638 1.94116 1.61377 0 1 0 1.2173 -0.0712 0.7293
31 1 Ar 1.70417 0.73817 3.23244 0 1 0 -1.0197 0.5243 -0.7876
32 1 Ar 3.70705 4.08875 0.90000 -1 0 0 -1.1560 -1.8979 -1.5079
33 1 Ar 2.90269 3.04206 1.91090 -1 0 0 0.3029 0.2303 -0.1322
34 1 Ar 0.39611 1.34240 0.67313 0 0 0 -2.6727 -1.7028 0.4572
35 1 Ar 1.24061 2.73526 3.37443 0 0 0 -0.5063 0.3661 0.5121
36 1 Ar 4.57652 4.94425 3.86490 -1 0 0 0.0916 -1.7513 2.2998
37 1 Ar 3.53826 1.92475 3.42168 0 0 -1 -2.8602 2.8723 -1.2093
38 1 Ar 3.21722 0.73599 0.16409 0 0 0 -0.5331 1.7456 0.9962
39 1 Ar 2.59639 2.74126 0.19672 0 -1 0 -1.0658 0.4824 1.1949
40 1 Ar 2.22677 4.03438 0.01359 0 -1 0 1.0889 1.2029 -1.7573
41 1 Ar 2.06070 3.91609 2.08292 0 -1 0 -0.9345 -1.8057 -1.8557
42 1 Ar 4.20812 1.16839 3.84848 0 0 0 1.6360 -0.8890 -0.2903
43 1 Ar 4.65679 0.37302 2.79513 0 0 0 -0.6652 0.9363 1.9413
44 1 Ar 1.86165 4.84756 2.79001 0 -1 0 -0.1488 -0.9976 1.9687
45 1 Ar 2.64433 1.52434 3.36403 0 0 0 0.4595 -0.4598 0.3292
46 1 Ar 3.11919 0.25140 2.53933 0 0 0 -0.2979 0.9156 0.2210
47 1 Ar 2.24038 3.18854 4.47011 0 -1 0 0.8666 2.5685 -1.6728
48 1 Ar 4.56058 4.37082 0.18038 -1 -1 1 -3.6971 1.7914 -1.0162
49 1 Ar 2.27253 0.17692 0.11343 0 0 0 -0.1591 1.8198 -2.2649
50 1 Ar 3.07768 3.26395 3.72000 0 0 -1 0.5810 1.6998 -2.4155
51 1 Ar 0.46869 3.52072 1.21816 1 0 0 -0.1910 -0.3147 1.0242
52 1 Ar 3.88111 1.51873 1.28636 0 0 0 0.6793 -1.4784 -0.9051
53 1 Ar 2.20771 0.03541 1.82789 0 0 0 1.5459 0.5877 1.2147
54 1 Ar 2.63069 1.25198 2.42738 0 0 0 -1.3630 -0.3068 1.3177
55 1 Ar 3.69485 3.00513 0.87745 0 -1 0 1.1933 -1.2464 -0.6871
56 1 Ar 1.43639 3.14941 2.30222 0 0 0 -2.5623 0.8789 -0.8621
57 1 Ar 2.03510 1.05019 4.40633 0 0 0 -0.2805 -2.9554 -1.5206
58 1 Ar 1.45758 1.52458 3.72353 0 0 0 0.7056 0.9992 1.0871
59 1 Ar 0.27768 0.33663 4.90090 0 0 0 0.5920 -0.8281 -1.2866
60 1 Ar 3.79870 2.85144 4.63526 -1 0 0 0.2938 -1.2192 2.5247
61 1 Ar 1.26732 0.96780 0.18701 0 0 0 0.4475 1.8338 1.0350
62 1 Ar 0.68803 2.63581 0.61883 0 0 0 -0.8301 -0.5127 -1.8048
63 1 Ar 2.35667 2.25070 1.13617 0 0 0 1.3936 1.4802 0.4020
64 1 Ar 2.30633 1.17603 1.12735 0 0 0 0.0712 1.2618 0.3136
65 1 Ar 1.61620 2.35399 4.61964 0 0 0 0.7521 0.0753 -0.1632
66 1 Ar 3.52740 3.46995 2.53726 0 0 0 2.2624 -1.0539 0.7489
67 1 Ar 2.06473 0.11707 4.15828 0 1 0 0.9168 -1.5486 0.4654
68 1 Ar 3.97211 2.87671 3.51672 -1 0 0 0.5865 0.3645 1.7619
69 1 Ar 1.30549 1.82117 0.87199 0 0 1 -0.7511 -1.5869 0.1762
70 1 Ar 2.20442 4.01617 3.68018 0 0 0 -0.1626 -0.7879 1.1137
71 1 Ar 0.87280 1.21353 1.54580 0 0 1 0.2355 1.4055 0.0926
72 1 Ar 0.78328 4.82811 3.87293 0 0 0 -1.6708 0.6357 -2.1069
73 1 Ar 3.21736 0.69283 1.30637 0 0 0 -0.0461 -0.3258 1.0572
74 1 Ar 0.12182 1.30686 3.11145 1 0 -1 0.4921 -0.3679 0.1709
75 1 Ar 0.95914 1.57395 4.58949 1 0 -1 1.1119 -0.0313 -0.4593
76 1 Ar 4.45618 3.52565 3.00260 0 0 -1 1.1568 1.1715 0.2688
77 1 Ar 4.19743 0.66679 0.87951 0 0 0 1.2472 1.0206 0.1181
78 1 Ar 3.95364 1.55528 4.70335 0 0 -1 2.5233 0.2351 1.2077
79 1 Ar 0.03630 4.35468 2.84260 1 -1 0 1.7267 -0.2681 0.5206
80 1 Ar 3.14935 2.57938 2.75796 0 0 0 0.5404 -2.6615 -0.7675
81 1 Ar 2.75260 4.20147 2.78766 0 -1 0 -0.3693 0.3804 0.7801
82 1 Ar 4.40658 1.97764 2.36649 0 0 0 -0.2794 -2.3530 -0.0791
83 1 Ar 0.61099 0.30520 2.89623 1 0 0 -1.3258 0.7772 0.2748
84 1 Ar 4.98096 1.35677 4.66969 0 0 0 2.2770 -1.6295 1.0605
85 1 Ar 2.28943 2.35741 3.73087 0 0 -1 -0.7610 0.9154 -1.7900
86 1 Ar 4.91413 3.30811 4.28375 0 0 -1 -1.6155 -0.7196 -1.5615
87 1 Ar 3.93511 4.65568 2.77810 0 0 0 -0.9553 -0.6853 -1.3662
88 1 Ar 4.13132 4.02840 4.42768 0 0 -1 -0.9406 -0.7208 0.2969
89 1 Ar 1.44028 3.55735 0.38733 0 -1 0 -0.0792 0.4424 -0.6001
90 1 Ar 4.31759 4.02422 2.02560 0 0 0 -0.8829 1.0741 -1.3585
91 1 Ar 0.20688 4.40744 4.47038 1 -1 0 -0.7185 -1.8435 0.8537
92 1 Ar 2.18327 1.67266 0.27433 0 0 0 -0.7184 0.4842 1.8488
93 1 Ar 0.82840 1.72254 2.74548 0 0 0 -0.1406 -4.0910 -1.9222
94 1 Ar 2.81825 4.46191 4.45390 0 0 0 0.8536 1.3267 -0.4794
95 1 Ar 1.24126 4.74033 4.84633 1 -1 0 -1.2256 -0.0211 -0.3513
96 1 Ar 4.12858 3.00289 2.01102 0 0 0 -0.1758 1.6173 0.7237
97 1 Ar 3.38635 0.25962 3.67232 0 1 -1 0.0028 2.5291 1.4253
98 1 Ar 0.05940 0.77193 3.85356 1 1 -1 -0.4199 1.7780 0.7527
99 1 Ar 4.61392 3.72048 0.87371 0 0 0 0.8481 1.2371 1.2782
100 1 Ar 3.07609 2.13166 4.41784 0 1 -1 0.1480 1.5712 -0.6870
101 1 Ar 2.46232 3.46447 0.86383 0 0 0 -1.1757 -1.8697 -0.4215
102 1 Ar 2.89135 4.71016 0.90052 0 0 0 1.7618 1.1454 -0.0560
103 1 Ar 3.10062 4.08196 1.72546 0 0 0 0.3569 -0.1480 -1.0129
104 1 Ar 2.23547 3.16975 2.90113 0 0 0 3.9028 -0.1474 -1.0602
105 1 Ar 1.05933 3.63797 4.30398 1 0 0 0.5499 -0.1583 1.0709
106 1 Ar 3.10065 1.06655 4.13887 1 1 0 1.7686 -1.1737 -0.4558
107 1 Ar 3.57075 1.18835 2.64021 0 0 0 0.8777 1.2953 0.3187
108 1 Ar 3.85378 0.01808 1.80213 0 1 0 0.6549 -2.0976 -0.3626
