12000
synthetic 12k stress lattice for Molecule3D
Fe 0.000 0.000 0.000
Cu 0.000 0.000 2.500
Fe 0.000 0.000 5.000
Cu 0.000 0.000 7.500
Fe 0.000 0.000 10.000
Cu 0.000 0.000 12.500
Fe 0.000 0.000 15.000
Cu 0.000 0.000 17.500
Fe 0.000 0.000 20.000
Cu 0.000 0.000 22.500
Fe 0.000 0.000 25.000
Cu 0.000 0.000 27.500
Fe 0.000 0.000 30.000
Cu 0.000 0.000 32.500
Fe 0.000 0.000 35.000
Cu 0.000 0.000 37.500
Fe 0.000 0.000 40.000
Cu 0.000 0.000 42.500
Fe 0.000 0.000 45.000
Cu 0.000 0.000 47.500
Fe 0.000 0.000 50.000
Cu 0.000 0.000 52.500
Fe 0.000 0.000 55.000
Cu 0.000 2.500 0.000
Fe 0.000 2.500 2.500
Cu 0.000 2.500 5.000
Fe 0.000 2.500 7.500
Cu 0.000 2.500 10.000
Fe 0.000 2.500 12.500
Cu 0.000 2.500 15.000
Fe 0.000 2.500 17.500
Cu 0.000 2.500 20.000
Fe 0.000 2.500 22.500
Cu 0.000 2.500 25.000
Fe 0.000 2.500 27.500
Cu 0.000 2.500 30.000
Fe 0.000 2.500 32.500
Cu 0.000 2.500 35.000
Fe 0.000 2.500 37.500
Cu 0.000 2.500 40.000
Fe 0.000 2.500 42.500
Cu 0.000 2.500 45.000
Fe 0.000 2.500 47.500
Cu 0.000 2.500 50.000
Fe 0.000 2.500 52.500
Cu 0.000 2.500 55.000
Fe 0.000 5.000 0.000
Cu 0.000 5.000 2.500
Fe 0.000 5.000 5.000
Cu 0.000 5.000 7.500
Fe 0.000 5.000 10.000
Cu 0.000 5.000 12.500
Fe 0.000 5.000 15.000
Cu 0.000 5.000 17.500
Fe 0.000 5.000 20.000
Cu 0.000 5.000 22.500
Fe 0.000 5.000 25.000
Cu 0.000 5.000 27.500
Fe 0.000 5.000 30.000
Cu 0.000 5.000 32.500
Fe 0.000 5.000 35.000
Cu 0.000 5.000 37.500
Fe 0.000 5.000 40.000
Cu 0.000 5.000 42.500
Fe 0.000 5.000 45.000
Cu 0.000 5.000 47.500
Fe 0.000 5.000 50.000
Cu 0.000 5.000 52.500
Fe 0.000 5.000 55.000
Cu 0.000 7.500 0.000
Fe 0.000 7.500 2.500
Cu 0.000 7.500 5.000
Fe 0.000 7.500 7.500
Cu 0.000 7.500 10.000
Fe 0.000 7.500 12.500
Cu 0.000 7.500 15.000
Fe 0.000 7.500 17.500
Cu 0.000 7.500 20.000
Fe 0.000 7.500 22.500
Cu 0.000 7.500 25.000
Fe 0.000 7.500 27.500
Cu 0.000 7.500 30.000
Fe 0.000 7.500 32.500
Cu 0.000 7.500 35.000
Fe 0.000 7.500 37.500
Cu 0.000 7.500 40.000
Fe 0.000 7.500 42.500
Cu 0.000 7.500 45.000
Fe 0.000 7.500 47.500
Cu 0.000 7.500 50.000
Fe 0.000 7.500 52.500
Cu 0.000 7.500 55.000
Fe 0.000 10.000 0.000
Cu 0.000 10.000 2.500
Fe 0.000 10.000 5.000
Cu 0.000 10.000 7.500
Fe 0.000 10.000 10.000
Cu 0.000 10.000 12.500
Fe 0.000 10.000 15.000
Cu 0.000 10.000 17.500
Fe 0.000 10.000 20.000
Cu 0.000 10.000 22.500
Fe 0.000 10.000 25.000
Cu 0.000 10.000 27.500
Fe 0.000 10.000 30.000
Cu 0.000 10.000 32.500
Fe 0.000 10.000 35.000
Cu 0.000 10.000 37.500
Fe 0.000 10.000 40.000
Cu 0.000 10.000 42.500
Fe 0.000 10.000 45.000
Cu 0.000 10.000 47.500
Fe 0.000 10.000 50.000
Cu 0.000 10.000 52.500
Fe 0.000 10.000 55.000
Cu 0.000 12.500 0.000
Fe 0.000 12.500 2.500
Cu 0.000 12.500 5.000
Fe 0.000 12.500 7.500
Cu 0.000 12.500 10.000
Fe 0.000 12.500 12.500
Cu 0.000 12.500 15.000
Fe 0.000 12.500 17.500
Cu 0.000 12.500 20.000
Fe 0.000 12.500 22.500
Cu 0.000 12.500 25.000
Fe 0.000 12.500 27.500
Cu 0.000 12.500 30.000
Fe 0.000 12.500 32.500
Cu 0.000 12.500 35.000
Fe 0.000 12.500 37.500
Cu 0.000 12.500 40.000
Fe 0.000 12.500 42.500
Cu 0.000 12.500 45.000
Fe 0.000 12.500 47.500
Cu 0.000 12.500 50.000
Fe 0.000 12.500 52.500
Cu 0.000 12.500 55.000
Fe 0.000 15.000 0.000
Cu 0.000 15.000 2.500
Fe 0.000 15.000 5.000
Cu 0.000 15.000 7.500
Fe 0.000 15.000 10.000
Cu 0.000 15.000 12.500
Fe 0.000 15.000 15.000
Cu 0.000 15.000 17.500
Fe 0.000 15.000 20.000
Cu 0.000 15.000 22.500
Fe 0.000 15.000 25.000
Cu 0.000 15.000 27.500
Fe 0.000 15.000 30.000
Cu 0.000 15.000 32.500
Fe 0.000 15.000 35.000
Cu 0.000 15.000 37.500
Fe 0.000 15.000 40.000
Cu 0.000 15.000 42.500
Fe 0.000 15.000 45.000
Cu 0.000 15.000 47.500
Fe 0.000 15.000 50.000
Cu 0.000 15.000 52.500
Fe 0.000 15.000 55.000
Cu 0.000 17.500 0.000
Fe 0.000 17.500 2.500
Cu 0.000 17.500 5.000
Fe 0.000 17.500 7.500
Cu 0.000 17.500 10.000
Fe 0.000 17.500 12.500
Cu 0.000 17.500 15.000
Fe 0.000 17.500 17.500
Cu 0.000 17.500 20.000
Fe 0.000 17.500 22.500
Cu 0.000 17.500 25.000
Fe 0.000 17.500 27.500
Cu 0.000 17.500 30.000
Fe 0.000 17.500 32.500
Cu 0.000 17.500 35.000
Fe 0.000 17.500 37.500
Cu 0.000 17.500 40.000
Fe 0.000 17.500 42.500
Cu 0.000 17.500 45.000
Fe 0.000 17.500 47.500
Cu 0.000 17.500 50.000
Fe 0.000 17.500 52.500
Cu 0.000 17.500 55.000
Fe 0.000 20.000 0.000
Cu 0.000 20.000 2.500
Fe 0.000 20.000 5.000
Cu 0.000 20.000 7.500
Fe 0.000 20.000 10.000
Cu 0.000 20.000 12.500
Fe 0.000 20.000 15.000
Cu 0.000 20.000 17.500
Fe 0.000 20.000 20.000
Cu 0.000 20.000 22.500
Fe 0.000 20.000 25.000
Cu 0.000 20.000 27.500
Fe 0.000 20.000 30.000
Cu 0.000 20.000 32.500
Fe 0.000 20.000 35.000
Cu 0.000 20.000 37.500
Fe 0.000 20.000 40.000
Cu 0.000 20.000 42.500
Fe 0.000 20.000 45.000
Cu 0.000 20.000 47.500
Fe 0.000 20.000 50.000
Cu 0.000 20.000 52.500
Fe 0.000 20.000 55.000
Cu 0.000 22.500 0.000
Fe 0.000 22.500 2.500
Cu 0.000 22.500 5.000
Fe 0.000 22.500 7.500
Cu 0.000 22.500 10.000
Fe 0.000 22.500 12.500
Cu 0.000 22.500 15.000
Fe 0.000 22.500 17.500
Cu 0.000 22.500 20.000
Fe 0.000 22.500 22.500
Cu 0.000 22.500 25.000
Fe 0.000 22.500 27.500
Cu 0.000 22.500 30.000
Fe 0.000 22.500 32.500
Cu 0.000 22.500 35.000
Fe 0.000 22.500 37.500
Cu 0.000 22.500 40.000
Fe 0.000 22.500 42.500
Cu 0.000 22.500 45.000
Fe 0.000 22.500 47.500
Cu 0.000 22.500 50.000
Fe 0.000 22.500 52.500
Cu 0.000 22.500 55.000
Fe 0.000 25.000 0.000
Cu 0.000 25.000 2.500
Fe 0.000 25.000 5.000
Cu 0.000 25.000 7.500
Fe 0.000 25.000 10.000
Cu 0.000 25.000 12.500
Fe 0.000 25.000 15.000
Cu 0.000 25.000 17.500
Fe 0.000 25.000 20.000
Cu 0.000 25.000 22.500
Fe 0.000 25.000 25.000
Cu 0.000 25.000 27.500
Fe 0.000 25.000 30.000
Cu 0.000 25.000 32.500
Fe 0.000 25.000 35.000
Cu 0.000 25.000 37.500
Fe 0.000 25.000 40.000
Cu 0.000 25.000 42.500
Fe 0.000 25.000 45.000
Cu 0.000 25.000 47.500
Fe 0.000 25.000 50.000
Cu 0.000 25.000 52.500
Fe 0.000 25.000 55.000
Cu 0.000 27.500 0.000
Fe 0.000 27.500 2.500
Cu 0.000 27.500 5.000
Fe 0.000 27.500 7.500
Cu 0.000 27.500 10.000
Fe 0.000 27.500 12.500
Cu 0.000 27.500 15.000
Fe 0.000 27.500 17.500
Cu 0.000 27.500 20.000
Fe 0.000 27.500 22.500
Cu 0.000 27.500 25.000
Fe 0.000 27.500 27.500
Cu 0.000 27.500 30.000
Fe 0.000 27.500 32.500
Cu 0.000 27.500 35.000
Fe 0.000 27.500 37.500
Cu 0.000 27.500 40.000
Fe 0.000 27.500 42.500
Cu 0.000 27.500 45.000
Fe 0.000 27.500 47.500
Cu 0.000 27.500 50.000
Fe 0.000 27.500 52.500
Cu 0.000 27.500 55.000
Fe 0.000 30.000 0.000
Cu 0.000 30.000 2.500
Fe 0.000 30.000 5.000
Cu 0.000 30.000 7.500
Fe 0.000 30.000 10.000
Cu 0.000 30.000 12.500
Fe 0.000 30.000 15.000
Cu 0.000 30.000 17.500
Fe 0.000 30.000 20.000
Cu 0.000 30.000 22.500
Fe 0.000 30.000 25.000
Cu 0.000 30.000 27.500
Fe 0.000 30.000 30.000
Cu 0.000 30.000 32.500
Fe 0.000 30.000 35.000
Cu 0.000 30.000 37.500
Fe 0.000 30.000 40.000
Cu 0.000 30.000 42.500
Fe 0.000 30.000 45.000
Cu 0.000 30.000 47.500
Fe 0.000 30.000 50.000
Cu 0.000 30.000 52.500
Fe 0.000 30.000 55.000
Cu 0.000 32.500 0.000
Fe 0.000 32.500 2.500
Cu 0.000 32.500 5.000
Fe 0.000 32.500 7.500
Cu 0.000 32.500 10.000
Fe 0.000 32.500 12.500
Cu 0.000 32.500 15.000
Fe 0.000 32.500 17.500
Cu 0.000 32.500 20.000
Fe 0.000 32.500 22.500
Cu 0.000 32.500 25.000
Fe 0.000 32.500 27.500
Cu 0.000 32.500 30.000
Fe 0.000 32.500 32.500
Cu 0.000 32.500 35.000
Fe 0.000 32.500 37.500
Cu 0.000 32.500 40.000
Fe 0.000 32.500 42.500
Cu 0.000 32.500 45.000
Fe 0.000 32.500 47.500
Cu 0.000 32.500 50.000
Fe 0.000 32.500 52.500
Cu 0.000 32.500 55.000
Fe 0.000 35.000 0.000
Cu 0.000 35.000 2.500
Fe 0.000 35.000 5.000
Cu 0.000 35.000 7.500
Fe 0.000 35.000 10.000
Cu 0.000 35.000 12.500
Fe 0.000 35.000 15.000
Cu 0.000 35.000 17.500
Fe 0.000 35.000 20.000
Cu 0.000 35.000 22.500
Fe 0.000 35.000 25.000
Cu 0.000 35.000 27.500
Fe 0.000 35.000 30.000
Cu 0.000 35.000 32.500
Fe 0.000 35.000 35.000
Cu 0.000 35.000 37.500
Fe 0.000 35.000 40.000
Cu 0.000 35.000 42.500
Fe 0.000 35.000 45.000
Cu 0.000 35.000 47.500
Fe 0.000 35.000 50.000
Cu 0.000 35.000 52.500
Fe 0.000 35.000 55.000
Cu 0.000 37.500 0.000
Fe 0.000 37.500 2.500
Cu 0.000 37.500 5.000
Fe 0.000 37.500 7.500
Cu 0.000 37.500 10.000
Fe 0.000 37.500 12.500
Cu 0.000 37.500 15.000
Fe 0.000 37.500 17.500
Cu 0.000 37.500 20.000
Fe 0.000 37.500 22.500
Cu 0.000 37.500 25.000
Fe 0.000 37.500 27.500
Cu 0.000 37.500 30.000
Fe 0.000 37.500 32.500
Cu 0.000 37.500 35.000
Fe 0.000 37.500 37.500
Cu 0.000 37.500 40.000
Fe 0.000 37.500 42.500
Cu 0.000 37.500 45.000
Fe 0.000 37.500 47.500
Cu 0.000 37.500 50.000
Fe 0.000 37.500 52.500
Cu 0.000 37.500 55.000
Fe 0.000 40.000 0.000
Cu 0.000 40.000 2.500
Fe 0.000 40.000 5.000
Cu 0.000 40.000 7.500
Fe 0.000 40.000 10.000
Cu 0.000 40.000 12.500
Fe 0.000 40.000 15.000
Cu 0.000 40.000 17.500
Fe 0.000 40.000 20.000
Cu 0.000 40.000 22.500
Fe 0.000 40.000 25.000
Cu 0.000 40.000 27.500
Fe 0.000 40.000 30.000
Cu 0.000 40.000 32.500
Fe 0.000 40.000 35.000
Cu 0.000 40.000 37.500
Fe 0.000 40.000 40.000
Cu 0.000 40.000 42.500
Fe 0.000 40.000 45.000
Cu 0.000 40.000 47.500
Fe 0.000 40.000 50.000
Cu 0.000 40.000 52.500
Fe 0.000 40.000 55.000
Cu 0.000 42.500 0.000
Fe 0.000 42.500 2.500
Cu 0.000 42.500 5.000
Fe 0.000 42.500 7.500
Cu 0.000 42.500 10.000
Fe 0.000 42.500 12.500
Cu 0.000 42.500 15.000
Fe 0.000 42.500 17.500
Cu 0.000 42.500 20.000
Fe 0.000 42.500 22.500
Cu 0.000 42.500 25.000
Fe 0.000 42.500 27.500
Cu 0.000 42.500 30.000
Fe 0.000 42.500 32.500
Cu 0.000 42.500 35.000
Fe 0.000 42.500 37.500
Cu 0.000 42.500 40.000
Fe 0.000 42.500 42.500
Cu 0.000 42.500 45.000
Fe 0.000 42.500 47.500
Cu 0.000 42.500 50.000
Fe 0.000 42.500 52.500
Cu 0.000 42.500 55.000
Fe 0.000 45.000 0.000
Cu 0.000 45.000 2.500
Fe 0.000 45.000 5.000
Cu 0.000 45.000 7.500
Fe 0.000 45.000 10.000
Cu 0.000 45.000 12.500
Fe 0.000 45.000 15.000
Cu 0.000 45.000 17.500
Fe 0.000 45.000 20.000
Cu 0.000 45.000 22.500
Fe 0.000 45.000 25.000
Cu 0.000 45.000 27.500
Fe 0.000 45.000 30.000
Cu 0.000 45.000 32.500
Fe 0.000 45.000 35.000
Cu 0.000 45.000 37.500
Fe 0.000 45.000 40.000
Cu 0.000 45.000 42.500
Fe 0.000 45.000 45.000
Cu 0.000 45.000 47.500
Fe 0.000 45.000 50.000
Cu 0.000 45.000 52.500
Fe 0.000 45.000 55.000
Cu 0.000 47.500 0.000
Fe 0.000 47.500 2.500
Cu 0.000 47.500 5.000
Fe 0.000 47.500 7.500
Cu 0.000 47.500 10.000
Fe 0.000 47.500 12.500
Cu 0.000 47.500 15.000
Fe 0.000 47.500 17.500
Cu 0.000 47.500 20.000
Fe 0.000 47.500 22.500
Cu 0.000 47.500 25.000
Fe 0.000 47.500 27.500
Cu 0.000 47.500 30.000
Fe 0.000 47.500 32.500
Cu 0.000 47.500 35.000
Fe 0.000 47.500 37.500
Cu 0.000 47.500 40.000
Fe 0.000 47.500 42.500
Cu 0.000 47.500 45.000
Fe 0.000 47.500 47.500
Cu 0.000 47.500 50.000
Fe 0.000 47.500 52.500
Cu 0.000 47.500 55.000
Fe 0.000 50.000 0.000
Cu 0.000 50.000 2.500
Fe 0.000 50.000 5.000
Cu 0.000 50.000 7.500
Fe 0.000 50.000 10.000
Cu 0.000 50.000 12.500
Fe 0.000 50.000 15.000
Cu 0.000 50.000 17.500
Fe 0.000 50.000 20.000
Cu 0.000 50.000 22.500
Fe 0.000 50.000 25.000
Cu 0.000 50.000 27.500
Fe 0.000 50.000 30.000
Cu 0.000 50.000 32.500
Fe 0.000 50.000 35.000
Cu 0.000 50.000 37.500
Fe 0.000 50.000 40.000
Cu 0.000 50.000 42.500
Fe 0.000 50.000 45.000
Cu 0.000 50.000 47.500
Fe 0.000 50.000 50.000
Cu 0.000 50.000 52.500
Fe 0.000 50.000 55.000
Cu 0.000 52.500 0.000
Fe 0.000 52.500 2.500
Cu 0.000 52.500 5.000
Fe 0.000 52.500 7.500
Cu 0.000 52.500 10.000
Fe 0.000 52.500 12.500
Cu 0.000 52.500 15.000
Fe 0.000 52.500 17.500
Cu 0.000 52.500 20.000
Fe 0.000 52.500 22.500
Cu 0.000 52.500 25.000
Fe 0.000 52.500 27.500
Cu 0.000 52.500 30.000
Fe 0.000 52.500 32.500
Cu 0.000 52.500 35.000
Fe 0.000 52.500 37.500
Cu 0.000 52.500 40.000
Fe 0.000 52.500 42.500
Cu 0.000 52.500 45.000
Fe 0.000 52.500 47.500
Cu 0.000 52.500 50.000
Fe 0.000 52.500 52.500
Cu 0.000 52.500 55.000
Fe 0.000 55.000 0.000
Cu 0.000 55.000 2.500
Fe 0.000 55.000 5.000
Cu 0.000 55.000 7.500
Fe 0.000 55.000 10.000
Cu 0.000 55.000 12.500
Fe 0.000 55.000 15.000
Cu 0.000 55.000 17.500
Fe 0.000 55.000 20.000
Cu 0.000 55.000 22.500
Fe 0.000 55.000 25.000
Cu 0.000 55.000 27.500
Fe 0.000 55.000 30.000
Cu 0.000 55.000 32.500
Fe 0.000 55.000 35.000
Cu 0.000 55.000 37.500
Fe 0.000 55.000 40.000
Cu 0.000 55.000 42.500
Fe 0.000 55.000 45.000
Cu 0.000 55.000 47.500
Fe 0.000 55.000 50.000
Cu 0.000 55.000 52.500
Fe 0.000 55.000 55.000
Cu 2.500 0.000 0.000
Fe 2.500 0.000 2.500
Cu 2.500 0.000 5.000
Fe 2.500 0.000 7.500
Cu 2.500 0.000 10.000
Fe 2.500 0.000 12.500
Cu 2.500 0.000 15.000
Fe 2.500 0.000 17.500
Cu 2.500 0.000 20.000
Fe 2.500 0.000 22.500
Cu 2.500 0.000 25.000
Fe 2.500 0.000 27.500
Cu 2.500 0.000 30.000
Fe 2.500 0.000 32.500
Cu 2.500 0.000 35.000
Fe 2.500 0.000 37.500
Cu 2.500 0.000 40.000
Fe 2.500 0.000 42.500
Cu 2.500 0.000 45.000
Fe 2.500 0.000 47.500
Cu 2.500 0.000 50.000
Fe 2.500 0.000 52.500
Cu 2.500 0.000 55.000
Fe 2.500 2.500 0.000
Cu 2.500 2.500 2.500
Fe 2.500 2.500 5.000
Cu 2.500 2.500 7.500
Fe 2.500 2.500 10.000
Cu 2.500 2.500 12.500
Fe 2.500 2.500 15.000
Cu 2.500 2.500 17.500
Fe 2.500 2.500 20.000
Cu 2.500 2.500 22.500
Fe 2.500 2.500 25.000
Cu 2.500 2.500 27.500
Fe 2.500 2.500 30.000
Cu 2.500 2.500 32.500
Fe 2.500 2.500 35.000
Cu 2.500 2.500 37.500
Fe 2.500 2.500 40.000
Cu 2.500 2.500 42.500
Fe 2.500 2.500 45.000
Cu 2.500 2.500 47.500
Fe 2.500 2.500 50.000
Cu 2.500 2.500 52.500
Fe 2.500 2.500 55.000
Cu 2.500 5.000 0.000
Fe 2.500 5.000 2.500
Cu 2.500 5.000 5.000
Fe 2.500 5.000 7.500
Cu 2.500 5.000 10.000
Fe 2.500 5.000 12.500
Cu 2.500 5.000 15.000
Fe 2.500 5.000 17.500
Cu 2.500 5.000 20.000
Fe 2.500 5.000 22.500
Cu 2.500 5.000 25.000
Fe 2.500 5.000 27.500
Cu 2.500 5.000 30.000
Fe 2.500 5.000 32.500
Cu 2.500 5.000 35.000
Fe 2.500 5.000 37.500
Cu 2.500 5.000 40.000
Fe 2.500 5.000 42.500
Cu 2.500 5.000 45.000
Fe 2.500 5.000 47.500
Cu 2.500 5.000 50.000
Fe 2.500 5.000 52.500
Cu 2.500 5.000 55.000
Fe 2.500 7.500 0.000
Cu 2.500 7.500 2.500
Fe 2.500 7.500 5.000
Cu 2.500 7.500 7.500
Fe 2.500 7.500 10.000
Cu 2.500 7.500 12.500
Fe 2.500 7.500 15.000
Cu 2.500 7.500 17.500
Fe 2.500 7.500 20.000
Cu 2.500 7.500 22.500
Fe 2.500 7.500 25.000
Cu 2.500 7.500 27.500
Fe 2.500 7.500 30.000
Cu 2.500 7.500 32.500
Fe 2.500 7.500 35.000
Cu 2.500 7.500 37.500
Fe 2.500 7.500 40.000
Cu 2.500 7.500 42.500
Fe 2.500 7.500 45.000
Cu 2.500 7.500 47.500
Fe 2.500 7.500 50.000
Cu 2.500 7.500 52.500
Fe 2.500 7.500 55.000
Cu 2.500 10.000 0.000
Fe 2.500 10.000 2.500
Cu 2.500 10.000 5.000
Fe 2.500 10.000 7.500
Cu 2.500 10.000 10.000
Fe 2.500 10.000 12.500
Cu 2.500 10.000 15.000
Fe 2.500 10.000 17.500
Cu 2.500 10.000 20.000
Fe 2.500 10.000 22.500
Cu 2.500 10.000 25.000
Fe 2.500 10.000 27.500
Cu 2.500 10.000 30.000
Fe 2.500 10.000 32.500
Cu 2.500 10.000 35.000
Fe 2.500 10.000 37.500
Cu 2.500 10.000 40.000
Fe 2.500 10.000 42.500
Cu 2.500 10.000 45.000
Fe 2.500 10.000 47.500
Cu 2.500 10.000 50.000
Fe 2.500 10.000 52.500
Cu 2.500 10.000 55.000
Fe 2.500 12.500 0.000
Cu 2.500 12.500 2.500
Fe 2.500 12.500 5.000
Cu 2.500 12.500 7.500
Fe 2.500 12.500 10.000
Cu 2.500 12.500 12.500
Fe 2.500 12.500 15.000
Cu 2.500 12.500 17.500
Fe 2.500 12.500 20.000
Cu 2.500 12.500 22.500
Fe 2.500 12.500 25.000
Cu 2.500 12.500 27.500
Fe 2.500 12.500 30.000
Cu 2.500 12.500 32.500
Fe 2.500 12.500 35.000
Cu 2.500 12.500 37.500
Fe 2.500 12.500 40.000
Cu 2.500 12.500 42.500
Fe 2.500 12.500 45.000
Cu 2.500 12.500 47.500
Fe 2.500 12.500 50.000
Cu 2.500 12.500 52.500
Fe 2.500 12.500 55.000
Cu 2.500 15.000 0.000
Fe 2.500 15.000 2.500
Cu 2.500 15.000 5.000
Fe 2.500 15.000 7.500
Cu 2.500 15.000 10.000
Fe 2.500 15.000 12.500
Cu 2.500 15.000 15.000
Fe 2.500 15.000 17.500
Cu 2.500 15.000 20.000
Fe 2.500 15.000 22.500
Cu 2.500 15.000 25.000
Fe 2.500 15.000 27.500
Cu 2.500 15.000 30.000
Fe 2.500 15.000 32.500
Cu 2.500 15.000 35.000
Fe 2.500 15.000 37.500
Cu 2.500 15.000 40.000
Fe 2.500 15.000 42.500
Cu 2.500 15.000 45.000
Fe 2.500 15.000 47.500
Cu 2.500 15.000 50.000
Fe 2.500 15.000 52.500
Cu 2.500 15.000 55.000
Fe 2.500 17.500 0.000
Cu 2.500 17.500 2.500
Fe 2.500 17.500 5.000
Cu 2.500 17.500 7.500
Fe 2.500 17.500 10.000
Cu 2.500 17.500 12.500
Fe 2.500 17.500 15.000
Cu 2.500 17.500 17.500
Fe 2.500 17.500 20.000
Cu 2.500 17.500 22.500
Fe 2.500 17.500 25.000
Cu 2.500 17.500 27.500
Fe 2.500 17.500 30.000
Cu 2.500 17.500 32.500
Fe 2.500 17.500 35.000
Cu 2.500 17.500 37.500
Fe 2.500 17.500 40.000
Cu 2.500 17.500 42.500
Fe 2.500 17.500 45.000
Cu 2.500 17.500 47.500
Fe 2.500 17.500 50.000
Cu 2.500 17.500 52.500
Fe 2.500 17.500 55.000
Cu 2.500 20.000 0.000
Fe 2.500 20.000 2.500
Cu 2.500 20.000 5.000
Fe 2.500 20.000 7.500
Cu 2.500 20.000 10.000
Fe 2.500 20.000 12.500
Cu 2.500 20.000 15.000
Fe 2.500 20.000 17.500
Cu 2.500 20.000 20.000
Fe 2.500 20.000 22.500
Cu 2.500 20.000 25.000
Fe 2.500 20.000 27.500
Cu 2.500 20.000 30.000
Fe 2.500 20.000 32.500
Cu 2.500 20.000 35.000
Fe 2.500 20.000 37.500
Cu 2.500 20.000 40.000
Fe 2.500 20.000 42.500
Cu 2.500 20.000 45.000
Fe 2.500 20.000 47.500
Cu 2.500 20.000 50.000
Fe 2.500 20.000 52.500
Cu 2.500 20.000 55.000
Fe 2.500 22.500 0.000
Cu 2.500 22.500 2.500
Fe 2.500 22.500 5.000
Cu 2.500 22.500 7.500
Fe 2.500 22.500 10.000
Cu 2.500 22.500 12.500
Fe 2.500 22.500 15.000
Cu 2.500 22.500 17.500
Fe 2.500 22.500 20.000
Cu 2.500 22.500 22.500
Fe 2.500 22.500 25.000
Cu 2.500 22.500 27.500
Fe 2.500 22.500 30.000
Cu 2.500 22.500 32.500
Fe 2.500 22.500 35.000
Cu 2.500 22.500 37.500
Fe 2.500 22.500 40.000
Cu 2.500 22.500 42.500
Fe 2.500 22.500 45.000
Cu 2.500 22.500 47.500
Fe 2.500 22.500 50.000
Cu 2.500 22.500 52.500
Fe 2.500 22.500 55.000
Cu 2.500 25.000 0.000
Fe 2.500 25.000 2.500
Cu 2.500 25.000 5.000
Fe 2.500 25.000 7.500
Cu 2.500 25.000 10.000
Fe 2.500 25.000 12.500
Cu 2.500 25.000 15.000
Fe 2.500 25.000 17.500
Cu 2.500 25.000 20.000
Fe 2.500 25.000 22.500
Cu 2.500 25.000 25.000
Fe 2.500 25.000 27.500
Cu 2.500 25.000 30.000
Fe 2.500 25.000 32.500
Cu 2.500 25.000 35.000
Fe 2.500 25.000 37.500
Cu 2.500 25.000 40.000
Fe 2.500 25.000 42.500
Cu 2.500 25.000 45.000
Fe 2.500 25.000 47.500
Cu 2.500 25.000 50.000
Fe 2.500 25.000 52.500
Cu 2.500 25.000 55.000
Fe 2.500 27.500 0.000
Cu 2.500 27.500 2.500
Fe 2.500 27.500 5.000
Cu 2.500 27.500 7.500
Fe 2.500 27.500 10.000
Cu 2.500 27.500 12.500
Fe 2.500 27.500 15.000
Cu 2.500 27.500 17.500
Fe 2.500 27.500 20.000
Cu 2.500 27.500 22.500
Fe 2.500 27.500 25.000
Cu 2.500 27.500 27.500
Fe 2.500 27.500 30.000
Cu 2.500 27.500 32.500
Fe 2.500 27.500 35.000
Cu 2.500 27.500 37.500
Fe 2.500 27.500 40.000
Cu 2.500 27.500 42.500
Fe 2.500 27.500 45.000
Cu 2.500 27.500 47.500
Fe 2.500 27.500 50.000
Cu 2.500 27.500 52.500
Fe 2.500 27.500 55.000
Cu 2.500 30.000 0.000
Fe 2.500 30.000 2.500
Cu 2.500 30.000 5.000
Fe 2.500 30.000 7.500
Cu 2.500 30.000 10.000
Fe 2.500 30.000 12.500
Cu 2.500 30.000 15.000
Fe 2.500 30.000 17.500
Cu 2.500 30.000 20.000
Fe 2.500 30.000 22.500
Cu 2.500 30.000 25.000
Fe 2.500 30.000 27.500
Cu 2.500 30.000 30.000
Fe 2.500 30.000 32.500
Cu 2.500 30.000 35.000
Fe 2.500 30.000 37.500
Cu 2.500 30.000 40.000
Fe 2.500 30.000 42.500
Cu 2.500 30.000 45.000
Fe 2.500 30.000 47.500
Cu 2.500 30.000 50.000
Fe 2.500 30.000 52.500
Cu 2.500 30.000 55.000
Fe 2.500 32.500 0.000
Cu 2.500 32.500 2.500
Fe 2.500 32.500 5.000
Cu 2.500 32.500 7.500
Fe 2.500 32.500 10.000
Cu 2.500 32.500 12.500
Fe 2.500 32.500 15.000
Cu 2.500 32.500 17.500
Fe 2.500 32.500 20.000
Cu 2.500 32.500 22.500
Fe 2.500 32.500 25.000
Cu 2.500 32.500 27.500
Fe 2.500 32.500 30.000
Cu 2.500 32.500 32.500
Fe 2.500 32.500 35.000
Cu 2.500 32.500 37.500
Fe 2.500 32.500 40.000
Cu 2.500 32.500 42.500
Fe 2.500 32.500 45.000
Cu 2.500 32.500 47.500
Fe 2.500 32.500 50.000
Cu 2.500 32.500 52.500
Fe 2.500 32.500 55.000
Cu 2.500 35.000 0.000
Fe 2.500 35.000 2.500
Cu 2.500 35.000 5.000
Fe 2.500 35.000 7.500
Cu 2.500 35.000 10.000
Fe 2.500 35.000 12.500
Cu 2.500 35.000 15.000
Fe 2.500 35.000 17.500
Cu 2.500 35.000 20.000
Fe 2.500 35.000 22.500
Cu 2.500 35.000 25.000
Fe 2.500 35.000 27.500
Cu 2.500 35.000 30.000
Fe 2.500 35.000 32.500
Cu 2.500 35.000 35.000
Fe 2.500 35.000 37.500
Cu 2.500 35.000 40.000
Fe 2.500 35.000 42.500
Cu 2.500 35.000 45.000
Fe 2.500 35.000 47.500
Cu 2.500 35.000 50.000
Fe 2.500 35.000 52.500
Cu 2.500 35.000 55.000
Fe 2.500 37.500 0.000
Cu 2.500 37.500 2.500
Fe 2.500 37.500 5.000
Cu 2.500 37.500 7.500
Fe 2.500 37.500 10.000
Cu 2.500 37.500 12.500
Fe 2.500 37.500 15.000
Cu 2.500 37.500 17.500
Fe 2.500 37.500 20.000
Cu 2.500 37.500 22.500
Fe 2.500 37.500 25.000
Cu 2.500 37.500 27.500
Fe 2.500 37.500 30.000
Cu 2.500 37.500 32.500
Fe 2.500 37.500 35.000
Cu 2.500 37.500 37.500
Fe 2.500 37.500 40.000
Cu 2.500 37.500 42.500
Fe 2.500 37.500 45.000
Cu 2.500 37.500 47.500
Fe 2.500 37.500 50.000
Cu 2.500 37.500 52.500
Fe 2.500 37.500 55.000
Cu 2.500 40.000 0.000
Fe 2.500 40.000 2.500
Cu 2.500 40.000 5.000
Fe 2.500 40.000 7.500
Cu 2.500 40.000 10.000
Fe 2.500 40.000 12.500
Cu 2.500 40.000 15.000
Fe 2.500 40.000 17.500
Cu 2.500 40.000 20.000
Fe 2.500 40.000 22.500
Cu 2.500 40.000 25.000
Fe 2.500 40.000 27.500
Cu 2.500 40.000 30.000
Fe 2.500 40.000 32.500
Cu 2.500 40.000 35.000
Fe 2.500 40.000 37.500
Cu 2.500 40.000 40.000
Fe 2.500 40.000 42.500
Cu 2.500 40.000 45.000
Fe 2.500 40.000 47.500
Cu 2.500 40.000 50.000
Fe 2.500 40.000 52.500
Cu 2.500 40.000 55.000
Fe 2.500 42.500 0.000
Cu 2.500 42.500 2.500
Fe 2.500 42.500 5.000
Cu 2.500 42.500 7.500
Fe 2.500 42.500 10.000
Cu 2.500 42.500 12.500
Fe 2.500 42.500 15.000
Cu 2.500 42.500 17.500
Fe 2.500 42.500 20.000
Cu 2.500 42.500 22.500
Fe 2.500 42.500 25.000
Cu 2.500 42.500 27.500
Fe 2.500 42.500 30.000
Cu 2.500 42.500 32.500
Fe 2.500 42.500 35.000
Cu 2.500 42.500 37.500
Fe 2.500 42.500 40.000
Cu 2.500 42.500 42.500
Fe 2.500 42.500 45.000
Cu 2.500 42.500 47.500
Fe 2.500 42.500 50.000
Cu 2.500 42.500 52.500
Fe 2.500 42.500 55.000
Cu 2.500 45.000 0.000
Fe 2.500 45.000 2.500
Cu 2.500 45.000 5.000
Fe 2.500 45.000 7.500
Cu 2.500 45.000 10.000
Fe 2.500 45.000 12.500
Cu 2.500 45.000 15.000
Fe 2.500 45.000 17.500
Cu 2.500 45.000 20.000
Fe 2.500 45.000 22.500
Cu 2.500 45.000 25.000
Fe 2.500 45.000 27.500
Cu 2.500 45.000 30.000
Fe 2.500 45.000 32.500
Cu 2.500 45.000 35.000
Fe 2.500 45.000 37.500
Cu 2.500 45.000 40.000
Fe 2.500 45.000 42.500
Cu 2.500 45.000 45.000
Fe 2.500 45.000 47.500
Cu 2.500 45.000 50.000
Fe 2.500 45.000 52.500
Cu 2.500 45.000 55.000
Fe 2.500 47.500 0.000
Cu 2.500 47.500 2.500
Fe 2.500 47.500 5.000
Cu 2.500 47.500 7.500
Fe 2.500 47.500 10.000
Cu 2.500 47.500 12.500
Fe 2.500 47.500 15.000
Cu 2.500 47.500 17.500
Fe 2.500 47.500 20.000
Cu 2.500 47.500 22.500
Fe 2.500 47.500 25.000
Cu 2.500 47.500 27.500
Fe 2.500 47.500 30.000
Cu 2.500 47.500 32.500
Fe 2.500 47.500 35.000
Cu 2.500 47.500 37.500
Fe 2.500 47.500 40.000
Cu 2.500 47.500 42.500
Fe 2.500 47.500 45.000
Cu 2.500 47.500 47.500
Fe 2.500 47.500 50.000
Cu 2.500 47.500 52.500
Fe 2.500 47.500 55.000
Cu 2.500 50.000 0.000
Fe 2.500 50.000 2.500
Cu 2.500 50.000 5.000
Fe 2.500 50.000 7.500
Cu 2.500 50.000 10.000
Fe 2.500 50.000 12.500
Cu 2.500 50.000 15.000
Fe 2.500 50.000 17.500
Cu 2.500 50.000 20.000
Fe 2.500 50.000 22.500
Cu 2.500 50.000 25.000
Fe 2.500 50.000 27.500
Cu 2.500 50.000 30.000
Fe 2.500 50.000 32.500
Cu 2.500 50.000 35.000
Fe 2.500 50.000 37.500
Cu 2.500 50.000 40.000
Fe 2.500 50.000 42.500
Cu 2.500 50.000 45.000
Fe 2.500 50.000 47.500
Cu 2.500 50.000 50.000
Fe 2.500 50.000 52.500
Cu 2.500 50.000 55.000
Fe 2.500 52.500 0.000
Cu 2.500 52.500 2.500
Fe 2.500 52.500 5.000
Cu 2.500 52.500 7.500
Fe 2.500 52.500 10.000
Cu 2.500 52.500 12.500
Fe 2.500 52.500 15.000
Cu 2.500 52.500 17.500
Fe 2.500 52.500 20.000
Cu 2.500 52.500 22.500
Fe 2.500 52.500 25.000
Cu 2.500 52.500 27.500
Fe 2.500 52.500 30.000
Cu 2.500 52.500 32.500
Fe 2.500 52.500 35.000
Cu 2.500 52.500 37.500
Fe 2.500 52.500 40.000
Cu 2.500 52.500 42.500
Fe 2.500 52.500 45.000
Cu 2.500 52.500 47.500
Fe 2.500 52.500 50.000
Cu 2.500 52.500 52.500
Fe 2.500 52.500 55.000
Cu 2.500 55.000 0.000
Fe 2.500 55.000 2.500
Cu 2.500 55.000 5.000
Fe 2.500 55.000 7.500
Cu 2.500 55.000 10.000
Fe 2.500 55.000 12.500
Cu 2.500 55.000 15.000
Fe 2.500 55.000 17.500
Cu 2.500 55.000 20.000
Fe 2.500 55.000 22.500
Cu 2.500 55.000 25.000
Fe 2.500 55.000 27.500
Cu 2.500 55.000 30.000
Fe 2.500 55.000 32.500
Cu 2.500 55.000 35.000
Fe 2.500 55.000 37.500
Cu 2.500 55.000 40.000
Fe 2.500 55.000 42.500
Cu 2.500 55.000 45.000
Fe 2.500 55.000 47.500
Cu 2.500 55.000 50.000
Fe 2.500 55.000 52.500
Cu 2.500 55.000 55.000
Fe 5.000 0.000 0.000
Cu 5.000 0.000 2.500
Fe 5.000 0.000 5.000
Cu 5.000 0.000 7.500
Fe 5.000 0.000 10.000
Cu 5.000 0.000 12.500
Fe 5.000 0.000 15.000
Cu 5.000 0.000 17.500
Fe 5.000 0.000 20.000
Cu 5.000 0.000 22.500
Fe 5.000 0.000 25.000
Cu 5.000 0.000 27.500
Fe 5.000 0.000 30.000
Cu 5.000 0.000 32.500
Fe 5.000 0.000 35.000
Cu 5.000 0.000 37.500
Fe 5.000 0.000 40.000
Cu 5.000 0.000 42.500
Fe 5.000 0.000 45.000
Cu 5.000 0.000 47.500
Fe 5.000 0.000 50.000
Cu 5.000 0.000 52.500
Fe 5.000 0.000 55.000
Cu 5.000 2.500 0.000
Fe 5.000 2.500 2.500
Cu 5.000 2.500 5.000
Fe 5.000 2.500 7.500
Cu 5.000 2.500 10.000
Fe 5.000 2.500 12.500
Cu 5.000 2.500 15.000
Fe 5.000 2.500 17.500
Cu 5.000 2.500 20.000
Fe 5.000 2.500 22.500
Cu 5.000 2.500 25.000
Fe 5.000 2.500 27.500
Cu 5.000 2.500 30.000
Fe 5.000 2.500 32.500
Cu 5.000 2.500 35.000
Fe 5.000 2.500 37.500
Cu 5.000 2.500 40.000
Fe 5.000 2.500 42.500
Cu 5.000 2.500 45.000
Fe 5.000 2.500 47.500
Cu 5.000 2.500 50.000
Fe 5.000 2.500 52.500
Cu 5.000 2.500 55.000
Fe 5.000 5.000 0.000
Cu 5.000 5.000 2.500
Fe 5.000 5.000 5.000
Cu 5.000 5.000 7.500
Fe 5.000 5.000 10.000
Cu 5.000 5.000 12.500
Fe 5.000 5.000 15.000
Cu 5.000 5.000 17.500
Fe 5.000 5.000 20.000
Cu 5.000 5.000 22.500
Fe 5.000 5.000 25.000
Cu 5.000 5.000 27.500
Fe 5.000 5.000 30.000
Cu 5.000 5.000 32.500
Fe 5.000 5.000 35.000
Cu 5.000 5.000 37.500
Fe 5.000 5.000 40.000
Cu 5.000 5.000 42.500
Fe 5.000 5.000 45.000
Cu 5.000 5.000 47.500
Fe 5.000 5.000 50.000
Cu 5.000 5.000 52.500
Fe 5.000 5.000 55.000
Cu 5.000 7.500 0.000
Fe 5.000 7.500 2.500
Cu 5.000 7.500 5.000
Fe 5.000 7.500 7.500
Cu 5.000 7.500 10.000
Fe 5.000 7.500 12.500
Cu 5.000 7.500 15.000
Fe 5.000 7.500 17.500
Cu 5.000 7.500 20.000
Fe 5.000 7.500 22.500
Cu 5.000 7.500 25.000
Fe 5.000 7.500 27.500
Cu 5.000 7.500 30.000
Fe 5.000 7.500 32.500
Cu 5.000 7.500 35.000
Fe 5.000 7.500 37.500
Cu 5.000 7.500 40.000
Fe 5.000 7.500 42.500
Cu 5.000 7.500 45.000
Fe 5.000 7.500 47.500
Cu 5.000 7.500 50.000
Fe 5.000 7.500 52.500
Cu 5.000 7.500 55.000
Fe 5.000 10.000 0.000
Cu 5.000 10.000 2.500
Fe 5.000 10.000 5.000
Cu 5.000 10.000 7.500
Fe 5.000 10.000 10.000
Cu 5.000 10.000 12.500
Fe 5.000 10.000 15.000
Cu 5.000 10.000 17.500
Fe 5.000 10.000 20.000
Cu 5.000 10.000 22.500
Fe 5.000 10.000 25.000
Cu 5.000 10.000 27.500
Fe 5.000 10.000 30.000
Cu 5.000 10.000 32.500
Fe 5.000 10.000 35.000
Cu 5.000 10.000 37.500
Fe 5.000 10.000 40.000
Cu 5.000 10.000 42.500
Fe 5.000 10.000 45.000
Cu 5.000 10.000 47.500
Fe 5.000 10.000 50.000
Cu 5.000 10.000 52.500
Fe 5.000 10.000 55.000
Cu 5.000 12.500 0.000
Fe 5.000 12.500 2.500
Cu 5.000 12.500 5.000
Fe 5.000 12.500 7.500
Cu 5.000 12.500 10.000
Fe 5.000 12.500 12.500
Cu 5.000 12.500 15.000
Fe 5.000 12.500 17.500
Cu 5.000 12.500 20.000
Fe 5.000 12.500 22.500
Cu 5.000 12.500 25.000
Fe 5.000 12.500 27.500
Cu 5.000 12.500 30.000
Fe 5.000 12.500 32.500
Cu 5.000 12.500 35.000
Fe 5.000 12.500 37.500
Cu 5.000 12.500 40.000
Fe 5.000 12.500 42.500
Cu 5.000 12.500 45.000
Fe 5.000 12.500 47.500
Cu 5.000 12.500 50.000
Fe 5.000 12.500 52.500
Cu 5.000 12.500 55.000
Fe 5.000 15.000 0.000
Cu 5.000 15.000 2.500
Fe 5.000 15.000 5.000
Cu 5.000 15.000 7.500
Fe 5.000 15.000 10.000
Cu 5.000 15.000 12.500
Fe 5.000 15.000 15.000
Cu 5.000 15.000 17.500
Fe 5.000 15.000 20.000
Cu 5.000 15.000 22.500
Fe 5.000 15.000 25.000
Cu 5.000 15.000 27.500
Fe 5.000 15.000 30.000
Cu 5.000 15.000 32.500
Fe 5.000 15.000 35.000
Cu 5.000 15.000 37.500
Fe 5.000 15.000 40.000
Cu 5.000 15.000 42.500
Fe 5.000 15.000 45.000
Cu 5.000 15.000 47.500
Fe 5.000 15.000 50.000
Cu 5.000 15.000 52.500
Fe 5.000 15.000 55.000
Cu 5.000 17.500 0.000
Fe 5.000 17.500 2.500
Cu 5.000 17.500 5.000
Fe 5.000 17.500 7.500
Cu 5.000 17.500 10.000
Fe 5.000 17.500 12.500
Cu 5.000 17.500 15.000
Fe 5.000 17.500 17.500
Cu 5.000 17.500 20.000
Fe 5.000 17.500 22.500
Cu 5.000 17.500 25.000
Fe 5.000 17.500 27.500
Cu 5.000 17.500 30.000
Fe 5.000 17.500 32.500
Cu 5.000 17.500 35.000
Fe 5.000 17.500 37.500
Cu 5.000 17.500 40.000
Fe 5.000 17.500 42.500
Cu 5.000 17.500 45.000
Fe 5.000 17.500 47.500
Cu 5.000 17.500 50.000
Fe 5.000 17.500 52.500
Cu 5.000 17.500 55.000
Fe 5.000 20.000 0.000
Cu 5.000 20.000 2.500
Fe 5.000 20.000 5.000
Cu 5.000 20.000 7.500
Fe 5.000 20.000 10.000
Cu 5.000 20.000 12.500
Fe 5.000 20.000 15.000
Cu 5.000 20.000 17.500
Fe 5.000 20.000 20.000
Cu 5.000 20.000 22.500
Fe 5.000 20.000 25.000
Cu 5.000 20.000 27.500
Fe 5.000 20.000 30.000
Cu 5.000 20.000 32.500
Fe 5.000 20.000 35.000
Cu 5.000 20.000 37.500
Fe 5.000 20.000 40.000
Cu 5.000 20.000 42.500
Fe 5.000 20.000 45.000
Cu 5.000 20.000 47.500
Fe 5.000 20.000 50.000
Cu 5.000 20.000 52.500
Fe 5.000 20.000 55.000
Cu 5.000 22.500 0.000
Fe 5.000 22.500 2.500
Cu 5.000 22.500 5.000
Fe 5.000 22.500 7.500
Cu 5.000 22.500 10.000
Fe 5.000 22.500 12.500
Cu 5.000 22.500 15.000
Fe 5.000 22.500 17.500
Cu 5.000 22.500 20.000
Fe 5.000 22.500 22.500
Cu 5.000 22.500 25.000
Fe 5.000 22.500 27.500
Cu 5.000 22.500 30.000
Fe 5.000 22.500 32.500
Cu 5.000 22.500 35.000
Fe 5.000 22.500 37.500
Cu 5.000 22.500 40.000
Fe 5.000 22.500 42.500
Cu 5.000 22.500 45.000
Fe 5.000 22.500 47.500
Cu 5.000 22.500 50.000
Fe 5.000 22.500 52.500
Cu 5.000 22.500 55.000
Fe 5.000 25.000 0.000
Cu 5.000 25.000 2.500
Fe 5.000 25.000 5.000
Cu 5.000 25.000 7.500
Fe 5.000 25.000 10.000
Cu 5.000 25.000 12.500
Fe 5.000 25.000 15.000
Cu 5.000 25.000 17.500
Fe 5.000 25.000 20.000
Cu 5.000 25.000 22.500
Fe 5.000 25.000 25.000
Cu 5.000 25.000 27.500
Fe 5.000 25.000 30.000
Cu 5.000 25.000 32.500
Fe 5.000 25.000 35.000
Cu 5.000 25.000 37.500
Fe 5.000 25.000 40.000
Cu 5.000 25.000 42.500
Fe 5.000 25.000 45.000
Cu 5.000 25.000 47.500
Fe 5.000 25.000 50.000
Cu 5.000 25.000 52.500
Fe 5.000 25.000 55.000
Cu 5.000 27.500 0.000
Fe 5.000 27.500 2.500
Cu 5.000 27.500 5.000
Fe 5.000 27.500 7.500
Cu 5.000 27.500 10.000
Fe 5.000 27.500 12.500
Cu 5.000 27.500 15.000
Fe 5.000 27.500 17.500
Cu 5.000 27.500 20.000
Fe 5.000 27.500 22.500
Cu 5.000 27.500 25.000
Fe 5.000 27.500 27.500
Cu 5.000 27.500 30.000
Fe 5.000 27.500 32.500
Cu 5.000 27.500 35.000
Fe 5.000 27.500 37.500
Cu 5.000 27.500 40.000
Fe 5.000 27.500 42.500
Cu 5.000 27.500 45.000
Fe 5.000 27.500 47.500
Cu 5.000 27.500 50.000
Fe 5.000 27.500 52.500
Cu 5.000 27.500 55.000
Fe 5.000 30.000 0.000
Cu 5.000 30.000 2.500
Fe 5.000 30.000 5.000
Cu 5.000 30.000 7.500
Fe 5.000 30.000 10.000
Cu 5.000 30.000 12.500
Fe 5.000 30.000 15.000
Cu 5.000 30.000 17.500
Fe 5.000 30.000 20.000
Cu 5.000 30.000 22.500
Fe 5.000 30.000 25.000
Cu 5.000 30.000 27.500
Fe 5.000 30.000 30.000
Cu 5.000 30.000 32.500
Fe 5.000 30.000 35.000
Cu 5.000 30.000 37.500
Fe 5.000 30.000 40.000
Cu 5.000 30.000 42.500
Fe 5.000 30.000 45.000
Cu 5.000 30.000 47.500
Fe 5.000 30.000 50.000
Cu 5.000 30.000 52.500
Fe 5.000 30.000 55.000
Cu 5.000 32.500 0.000
Fe 5.000 32.500 2.500
Cu 5.000 32.500 5.000
Fe 5.000 32.500 7.500
Cu 5.000 32.500 10.000
Fe 5.000 32.500 12.500
Cu 5.000 32.500 15.000
Fe 5.000 32.500 17.500
Cu 5.000 32.500 20.000
Fe 5.000 32.500 22.500
Cu 5.000 32.500 25.000
Fe 5.000 32.500 27.500
Cu 5.000 32.500 30.000
Fe 5.000 32.500 32.500
Cu 5.000 32.500 35.000
Fe 5.000 32.500 37.500
Cu 5.000 32.500 40.000
Fe 5.000 32.500 42.500
Cu 5.000 32.500 45.000
Fe 5.000 32.500 47.500
Cu 5.000 32.500 50.000
Fe 5.000 32.500 52.500
Cu 5.000 32.500 55.000
Fe 5.000 35.000 0.000
Cu 5.000 35.000 2.500
Fe 5.000 35.000 5.000
Cu 5.000 35.000 7.500
Fe 5.000 35.000 10.000
Cu 5.000 35.000 12.500
Fe 5.000 35.000 15.000
Cu 5.000 35.000 17.500
Fe 5.000 35.000 20.000
Cu 5.000 35.000 22.500
Fe 5.000 35.000 25.000
Cu 5.000 35.000 27.500
Fe 5.000 35.000 30.000
Cu 5.000 35.000 32.500
Fe 5.000 35.000 35.000
Cu 5.000 35.000 37.500
Fe 5.000 35.000 40.000
Cu 5.000 35.000 42.500
Fe 5.000 35.000 45.000
Cu 5.000 35.000 47.500
Fe 5.000 35.000 50.000
Cu 5.000 35.000 52.500
Fe 5.000 35.000 55.000
Cu 5.000 37.500 0.000
Fe 5.000 37.500 2.500
Cu 5.000 37.500 5.000
Fe 5.000 37.500 7.500
Cu 5.000 37.500 10.000
Fe 5.000 37.500 12.500
Cu 5.000 37.500 15.000
Fe 5.000 37.500 17.500
Cu 5.000 37.500 20.000
Fe 5.000 37.500 22.500
Cu 5.000 37.500 25.000
Fe 5.000 37.500 27.500
Cu 5.000 37.500 30.000
Fe 5.000 37.500 32.500
Cu 5.000 37.500 35.000
Fe 5.000 37.500 37.500
Cu 5.000 37.500 40.000
Fe 5.000 37.500 42.500
Cu 5.000 37.500 45.000
Fe 5.000 37.500 47.500
Cu 5.000 37.500 50.000
Fe 5.000 37.500 52.500
Cu 5.000 37.500 55.000
Fe 5.000 40.000 0.000
Cu 5.000 40.000 2.500
Fe 5.000 40.000 5.000
Cu 5.000 40.000 7.500
Fe 5.000 40.000 10.000
Cu 5.000 40.000 12.500
Fe 5.000 40.000 15.000
Cu 5.000 40.000 17.500
Fe 5.000 40.000 20.000
Cu 5.000 40.000 22.500
Fe 5.000 40.000 25.000
Cu 5.000 40.000 27.500
Fe 5.000 40.000 30.000
Cu 5.000 40.000 32.500
Fe 5.000 40.000 35.000
Cu 5.000 40.000 37.500
Fe 5.000 40.000 40.000
Cu 5.000 40.000 42.500
Fe 5.000 40.000 45.000
Cu 5.000 40.000 47.500
Fe 5.000 40.000 50.000
Cu 5.000 40.000 52.500
Fe 5.000 40.000 55.000
Cu 5.000 42.500 0.000
Fe 5.000 42.500 2.500
Cu 5.000 42.500 5.000
Fe 5.000 42.500 7.500
Cu 5.000 42.500 10.000
Fe 5.000 42.500 12.500
Cu 5.000 42.500 15.000
Fe 5.000 42.500 17.500
Cu 5.000 42.500 20.000
Fe 5.000 42.500 22.500
Cu 5.000 42.500 25.000
Fe 5.000 42.500 27.500
Cu 5.000 42.500 30.000
Fe 5.000 42.500 32.500
Cu 5.000 42.500 35.000
Fe 5.000 42.500 37.500
Cu 5.000 42.500 40.000
Fe 5.000 42.500 42.500
Cu 5.000 42.500 45.000
Fe 5.000 42.500 47.500
Cu 5.000 42.500 50.000
Fe 5.000 42.500 52.500
Cu 5.000 42.500 55.000
Fe 5.000 45.000 0.000
Cu 5.000 45.000 2.500
Fe 5.000 45.000 5.000
Cu 5.000 45.000 7.500
Fe 5.000 45.000 10.000
Cu 5.000 45.000 12.500
Fe 5.000 45.000 15.000
Cu 5.000 45.000 17.500
Fe 5.000 45.000 20.000
Cu 5.000 45.000 22.500
Fe 5.000 45.000 25.000
Cu 5.000 45.000 27.500
Fe 5.000 45.000 30.000
Cu 5.000 45.000 32.500
Fe 5.000 45.000 35.000
Cu 5.000 45.000 37.500
Fe 5.000 45.000 40.000
Cu 5.000 45.000 42.500
Fe 5.000 45.000 45.000
Cu 5.000 45.000 47.500
Fe 5.000 45.000 50.000
Cu 5.000 45.000 52.500
Fe 5.000 45.000 55.000
Cu 5.000 47.500 0.000
Fe 5.000 47.500 2.500
Cu 5.000 47.500 5.000
Fe 5.000 47.500 7.500
Cu 5.000 47.500 10.000
Fe 5.000 47.500 12.500
Cu 5.000 47.500 15.000
Fe 5.000 47.500 17.500
Cu 5.000 47.500 20.000
Fe 5.000 47.500 22.500
Cu 5.000 47.500 25.000
Fe 5.000 47.500 27.500
Cu 5.000 47.500 30.000
Fe 5.000 47.500 32.500
Cu 5.000 47.500 35.000
Fe 5.000 47.500 37.500
Cu 5.000 47.500 40.000
Fe 5.000 47.500 42.500
Cu 5.000 47.500 45.000
Fe 5.000 47.500 47.500
Cu 5.000 47.500 50.000
Fe 5.000 47.500 52.500
Cu 5.000 47.500 55.000
Fe 5.000 50.000 0.000
Cu 5.000 50.000 2.500
Fe 5.000 50.000 5.000
Cu 5.000 50.000 7.500
Fe 5.000 50.000 10.000
Cu 5.000 50.000 12.500
Fe 5.000 50.000 15.000
Cu 5.000 50.000 17.500
Fe 5.000 50.000 20.000
Cu 5.000 50.000 22.500
Fe 5.000 50.000 25.000
Cu 5.000 50.000 27.500
Fe 5.000 50.000 30.000
Cu 5.000 50.000 32.500
Fe 5.000 50.000 35.000
Cu 5.000 50.000 37.500
Fe 5.000 50.000 40.000
Cu 5.000 50.000 42.500
Fe 5.000 50.000 45.000
Cu 5.000 50.000 47.500
Fe 5.000 50.000 50.000
Cu 5.000 50.000 52.500
Fe 5.000 50.000 55.000
Cu 5.000 52.500 0.000
Fe 5.000 52.500 2.500
Cu 5.000 52.500 5.000
Fe 5.000 52.500 7.500
Cu 5.000 52.500 10.000
Fe 5.000 52.500 12.500
Cu 5.000 52.500 15.000
Fe 5.000 52.500 17.500
Cu 5.000 52.500 20.000
Fe 5.000 52.500 22.500
Cu 5.000 52.500 25.000
Fe 5.000 52.500 27.500
Cu 5.000 52.500 30.000
Fe 5.000 52.500 32.500
Cu 5.000 52.500 35.000
Fe 5.000 52.500 37.500
Cu 5.000 52.500 40.000
Fe 5.000 52.500 42.500
Cu 5.000 52.500 45.000
Fe 5.000 52.500 47.500
Cu 5.000 52.500 50.000
Fe 5.000 52.500 52.500
Cu 5.000 52.500 55.000
Fe 5.000 55.000 0.000
Cu 5.000 55.000 2.500
Fe 5.000 55.000 5.000
Cu 5.000 55.000 7.500
Fe 5.000 55.000 10.000
Cu 5.000 55.000 12.500
Fe 5.000 55.000 15.000
Cu 5.000 55.000 17.500
Fe 5.000 55.000 20.000
Cu 5.000 55.000 22.500
Fe 5.000 55.000 25.000
Cu 5.000 55.000 27.500
Fe 5.000 55.000 30.000
Cu 5.000 55.000 32.500
Fe 5.000 55.000 35.000
Cu 5.000 55.000 37.500
Fe 5.000 55.000 40.000
Cu 5.000 55.000 42.500
Fe 5.000 55.000 45.000
Cu 5.000 55.000 47.500
Fe 5.000 55.000 50.000
Cu 5.000 55.000 52.500
Fe 5.000 55.000 55.000
Cu 7.500 0.000 0.000
Fe 7.500 0.000 2.500
Cu 7.500 0.000 5.000
Fe 7.500 0.000 7.500
Cu 7.500 0.000 10.000
Fe 7.500 0.000 12.500
Cu 7.500 0.000 15.000
Fe 7.500 0.000 17.500
Cu 7.500 0.000 20.000
Fe 7.500 0.000 22.500
Cu 7.500 0.000 25.000
Fe 7.500 0.000 27.500
Cu 7.500 0.000 30.000
Fe 7.500 0.000 32.500
Cu 7.500 0.000 35.000
Fe 7.500 0.000 37.500
Cu 7.500 0.000 40.000
Fe 7.500 0.000 42.500
Cu 7.500 0.000 45.000
Fe 7.500 0.000 47.500
Cu 7.500 0.000 50.000
Fe 7.500 0.000 52.500
Cu 7.500 0.000 55.000
Fe 7.500 2.500 0.000
Cu 7.500 2.500 2.500
Fe 7.500 2.500 5.000
Cu 7.500 2.500 7.500
Fe 7.500 2.500 10.000
Cu 7.500 2.500 12.500
Fe 7.500 2.500 15.000
Cu 7.500 2.500 17.500
Fe 7.500 2.500 20.000
Cu 7.500 2.500 22.500
Fe 7.500 2.500 25.000
Cu 7.500 2.500 27.500
Fe 7.500 2.500 30.000
Cu 7.500 2.500 32.500
Fe 7.500 2.500 35.000
Cu 7.500 2.500 37.500
Fe 7.500 2.500 40.000
Cu 7.500 2.500 42.500
Fe 7.500 2.500 45.000
Cu 7.500 2.500 47.500
Fe 7.500 2.500 50.000
Cu 7.500 2.500 52.500
Fe 7.500 2.500 55.000
Cu 7.500 5.000 0.000
Fe 7.500 5.000 2.500
Cu 7.500 5.000 5.000
Fe 7.500 5.000 7.500
Cu 7.500 5.000 10.000
Fe 7.500 5.000 12.500
Cu 7.500 5.000 15.000
Fe 7.500 5.000 17.500
Cu 7.500 5.000 20.000
Fe 7.500 5.000 22.500
Cu 7.500 5.000 25.000
Fe 7.500 5.000 27.500
Cu 7.500 5.000 30.000
Fe 7.500 5.000 32.500
Cu 7.500 5.000 35.000
Fe 7.500 5.000 37.500
Cu 7.500 5.000 40.000
Fe 7.500 5.000 42.500
Cu 7.500 5.000 45.000
Fe 7.500 5.000 47.500
Cu 7.500 5.000 50.000
Fe 7.500 5.000 52.500
Cu 7.500 5.000 55.000
Fe 7.500 7.500 0.000
Cu 7.500 7.500 2.500
Fe 7.500 7.500 5.000
Cu 7.500 7.500 7.500
Fe 7.500 7.500 10.000
Cu 7.500 7.500 12.500
Fe 7.500 7.500 15.000
Cu 7.500 7.500 17.500
Fe 7.500 7.500 20.000
Cu 7.500 7.500 22.500
Fe 7.500 7.500 25.000
Cu 7.500 7.500 27.500
Fe 7.500 7.500 30.000
Cu 7.500 7.500 32.500
Fe 7.500 7.500 35.000
Cu 7.500 7.500 37.500
Fe 7.500 7.500 40.000
Cu 7.500 7.500 42.500
Fe 7.500 7.500 45.000
Cu 7.500 7.500 47.500
Fe 7.500 7.500 50.000
Cu 7.500 7.500 52.500
Fe 7.500 7.500 55.000
Cu 7.500 10.000 0.000
Fe 7.500 10.000 2.500
Cu 7.500 10.000 5.000
Fe 7.500 10.000 7.500
Cu 7.500 10.000 10.000
Fe 7.500 10.000 12.500
Cu 7.500 10.000 15.000
Fe 7.500 10.000 17.500
Cu 7.500 10.000 20.000
Fe 7.500 10.000 22.500
Cu 7.500 10.000 25.000
Fe 7.500 10.000 27.500
Cu 7.500 10.000 30.000
Fe 7.500 10.000 32.500
Cu 7.500 10.000 35.000
Fe 7.500 10.000 37.500
Cu 7.500 10.000 40.000
Fe 7.500 10.000 42.500
Cu 7.500 10.000 45.000
Fe 7.500 10.000 47.500
Cu 7.500 10.000 50.000
Fe 7.500 10.000 52.500
Cu 7.500 10.000 55.000
Fe 7.500 12.500 0.000
Cu 7.500 12.500 2.500
Fe 7.500 12.500 5.000
Cu 7.500 12.500 7.500
Fe 7.500 12.500 10.000
Cu 7.500 12.500 12.500
Fe 7.500 12.500 15.000
Cu 7.500 12.500 17.500
Fe 7.500 12.500 20.000
Cu 7.500 12.500 22.500
Fe 7.500 12.500 25.000
Cu 7.500 12.500 27.500
Fe 7.500 12.500 30.000
Cu 7.500 12.500 32.500
Fe 7.500 12.500 35.000
Cu 7.500 12.500 37.500
Fe 7.500 12.500 40.000
Cu 7.500 12.500 42.500
Fe 7.500 12.500 45.000
Cu 7.500 12.500 47.500
Fe 7.500 12.500 50.000
Cu 7.500 12.500 52.500
Fe 7.500 12.500 55.000
Cu 7.500 15.000 0.000
Fe 7.500 15.000 2.500
Cu 7.500 15.000 5.000
Fe 7.500 15.000 7.500
Cu 7.500 15.000 10.000
Fe 7.500 15.000 12.500
Cu 7.500 15.000 15.000
Fe 7.500 15.000 17.500
Cu 7.500 15.000 20.000
Fe 7.500 15.000 22.500
Cu 7.500 15.000 25.000
Fe 7.500 15.000 27.500
Cu 7.500 15.000 30.000
Fe 7.500 15.000 32.500
Cu 7.500 15.000 35.000
Fe 7.500 15.000 37.500
Cu 7.500 15.000 40.000
Fe 7.500 15.000 42.500
Cu 7.500 15.000 45.000
Fe 7.500 15.000 47.500
Cu 7.500 15.000 50.000
Fe 7.500 15.000 52.500
Cu 7.500 15.000 55.000
Fe 7.500 17.500 0.000
Cu 7.500 17.500 2.500
Fe 7.500 17.500 5.000
Cu 7.500 17.500 7.500
Fe 7.500 17.500 10.000
Cu 7.500 17.500 12.500
Fe 7.500 17.500 15.000
Cu 7.500 17.500 17.500
Fe 7.500 17.500 20.000
Cu 7.500 17.500 22.500
Fe 7.500 17.500 25.000
Cu 7.500 17.500 27.500
Fe 7.500 17.500 30.000
Cu 7.500 17.500 32.500
Fe 7.500 17.500 35.000
Cu 7.500 17.500 37.500
Fe 7.500 17.500 40.000
Cu 7.500 17.500 42.500
Fe 7.500 17.500 45.000
Cu 7.500 17.500 47.500
Fe 7.500 17.500 50.000
Cu 7.500 17.500 52.500
Fe 7.500 17.500 55.000
Cu 7.500 20.000 0.000
Fe 7.500 20.000 2.500
Cu 7.500 20.000 5.000
Fe 7.500 20.000 7.500
Cu 7.500 20.000 10.000
Fe 7.500 20.000 12.500
Cu 7.500 20.000 15.000
Fe 7.500 20.000 17.500
Cu 7.500 20.000 20.000
Fe 7.500 20.000 22.500
Cu 7.500 20.000 25.000
Fe 7.500 20.000 27.500
Cu 7.500 20.000 30.000
Fe 7.500 20.000 32.500
Cu 7.500 20.000 35.000
Fe 7.500 20.000 37.500
Cu 7.500 20.000 40.000
Fe 7.500 20.000 42.500
Cu 7.500 20.000 45.000
Fe 7.500 20.000 47.500
Cu 7.500 20.000 50.000
Fe 7.500 20.000 52.500
Cu 7.500 20.000 55.000
Fe 7.500 22.500 0.000
Cu 7.500 22.500 2.500
Fe 7.500 22.500 5.000
Cu 7.500 22.500 7.500
Fe 7.500 22.500 10.000
Cu 7.500 22.500 12.500
Fe 7.500 22.500 15.000
Cu 7.500 22.500 17.500
Fe 7.500 22.500 20.000
Cu 7.500 22.500 22.500
Fe 7.500 22.500 25.000
Cu 7.500 22.500 27.500
Fe 7.500 22.500 30.000
Cu 7.500 22.500 32.500
Fe 7.500 22.500 35.000
Cu 7.500 22.500 37.500
Fe 7.500 22.500 40.000
Cu 7.500 22.500 42.500
Fe 7.500 22.500 45.000
Cu 7.500 22.500 47.500
Fe 7.500 22.500 50.000
Cu 7.500 22.500 52.500
Fe 7.500 22.500 55.000
Cu 7.500 25.000 0.000
Fe 7.500 25.000 2.500
Cu 7.500 25.000 5.000
Fe 7.500 25.000 7.500
Cu 7.500 25.000 10.000
Fe 7.500 25.000 12.500
Cu 7.500 25.000 15.000
Fe 7.500 25.000 17.500
Cu 7.500 25.000 20.000
Fe 7.500 25.000 22.500
Cu 7.500 25.000 25.000
Fe 7.500 25.000 27.500
Cu 7.500 25.000 30.000
Fe 7.500 25.000 32.500
Cu 7.500 25.000 35.000
Fe 7.500 25.000 37.500
Cu 7.500 25.000 40.000
Fe 7.500 25.000 42.500
Cu 7.500 25.000 45.000
Fe 7.500 25.000 47.500
Cu 7.500 25.000 50.000
Fe 7.500 25.000 52.500
Cu 7.500 25.000 55.000
Fe 7.500 27.500 0.000
Cu 7.500 27.500 2.500
Fe 7.500 27.500 5.000
Cu 7.500 27.500 7.500
Fe 7.500 27.500 10.000
Cu 7.500 27.500 12.500
Fe 7.500 27.500 15.000
Cu 7.500 27.500 17.500
Fe 7.500 27.500 20.000
Cu 7.500 27.500 22.500
Fe 7.500 27.500 25.000
Cu 7.500 27.500 27.500
Fe 7.500 27.500 30.000
Cu 7.500 27.500 32.500
Fe 7.500 27.500 35.000
Cu 7.500 27.500 37.500
Fe 7.500 27.500 40.000
Cu 7.500 27.500 42.500
Fe 7.500 27.500 45.000
Cu 7.500 27.500 47.500
Fe 7.500 27.500 50.000
Cu 7.500 27.500 52.500
Fe 7.500 27.500 55.000
Cu 7.500 30.000 0.000
Fe 7.500 30.000 2.500
Cu 7.500 30.000 5.000
Fe 7.500 30.000 7.500
Cu 7.500 30.000 10.000
Fe 7.500 30.000 12.500
Cu 7.500 30.000 15.000
Fe 7.500 30.000 17.500
Cu 7.500 30.000 20.000
Fe 7.500 30.000 22.500
Cu 7.500 30.000 25.000
Fe 7.500 30.000 27.500
Cu 7.500 30.000 30.000
Fe 7.500 30.000 32.500
Cu 7.500 30.000 35.000
Fe 7.500 30.000 37.500
Cu 7.500 30.000 40.000
Fe 7.500 30.000 42.500
Cu 7.500 30.000 45.000
Fe 7.500 30.000 47.500
Cu 7.500 30.000 50.000
Fe 7.500 30.000 52.500
Cu 7.500 30.000 55.000
Fe 7.500 32.500 0.000
Cu 7.500 32.500 2.500
Fe 7.500 32.500 5.000
Cu 7.500 32.500 7.500
Fe 7.500 32.500 10.000
Cu 7.500 32.500 12.500
Fe 7.500 32.500 15.000
Cu 7.500 32.500 17.500
Fe 7.500 32.500 20.000
Cu 7.500 32.500 22.500
Fe 7.500 32.500 25.000
Cu 7.500 32.500 27.500
Fe 7.500 32.500 30.000
Cu 7.500 32.500 32.500
Fe 7.500 32.500 35.000
Cu 7.500 32.500 37.500
Fe 7.500 32.500 40.000
Cu 7.500 32.500 42.500
Fe 7.500 32.500 45.000
Cu 7.500 32.500 47.500
Fe 7.500 32.500 50.000
Cu 7.500 32.500 52.500
Fe 7.500 32.500 55.000
Cu 7.500 35.000 0.000
Fe 7.500 35.000 2.500
Cu 7.500 35.000 5.000
Fe 7.500 35.000 7.500
Cu 7.500 35.000 10.000
Fe 7.500 35.000 12.500
Cu 7.500 35.000 15.000
Fe 7.500 35.000 17.500
Cu 7.500 35.000 20.000
Fe 7.500 35.000 22.500
Cu 7.500 35.000 25.000
Fe 7.500 35.000 27.500
Cu 7.500 35.000 30.000
Fe 7.500 35.000 32.500
Cu 7.500 35.000 35.000
Fe 7.500 35.000 37.500
Cu 7.500 35.000 40.000
Fe 7.500 35.000 42.500
Cu 7.500 35.000 45.000
Fe 7.500 35.000 47.500
Cu 7.500 35.000 50.000
Fe 7.500 35.000 52.500
Cu 7.500 35.000 55.000
Fe 7.500 37.500 0.000
Cu 7.500 37.500 2.500
Fe 7.500 37.500 5.000
Cu 7.500 37.500 7.500
Fe 7.500 37.500 10.000
Cu 7.500 37.500 12.500
Fe 7.500 37.500 15.000
Cu 7.500 37.500 17.500
Fe 7.500 37.500 20.000
Cu 7.500 37.500 22.500
Fe 7.500 37.500 25.000
Cu 7.500 37.500 27.500
Fe 7.500 37.500 30.000
Cu 7.500 37.500 32.500
Fe 7.500 37.500 35.000
Cu 7.500 37.500 37.500
Fe 7.500 37.500 40.000
Cu 7.500 37.500 42.500
Fe 7.500 37.500 45.000
Cu 7.500 37.500 47.500
Fe 7.500 37.500 50.000
Cu 7.500 37.500 52.500
Fe 7.500 37.500 55.000
Cu 7.500 40.000 0.000
Fe 7.500 40.000 2.500
Cu 7.500 40.000 5.000
Fe 7.500 40.000 7.500
Cu 7.500 40.000 10.000
Fe 7.500 40.000 12.500
Cu 7.500 40.000 15.000
Fe 7.500 40.000 17.500
Cu 7.500 40.000 20.000
Fe 7.500 40.000 22.500
Cu 7.500 40.000 25.000
Fe 7.500 40.000 27.500
Cu 7.500 40.000 30.000
Fe 7.500 40.000 32.500
Cu 7.500 40.000 35.000
Fe 7.500 40.000 37.500
Cu 7.500 40.000 40.000
Fe 7.500 40.000 42.500
Cu 7.500 40.000 45.000
Fe 7.500 40.000 47.500
Cu 7.500 40.000 50.000
Fe 7.500 40.000 52.500
Cu 7.500 40.000 55.000
Fe 7.500 42.500 0.000
Cu 7.500 42.500 2.500
Fe 7.500 42.500 5.000
Cu 7.500 42.500 7.500
Fe 7.500 42.500 10.000
Cu 7.500 42.500 12.500
Fe 7.500 42.500 15.000
Cu 7.500 42.500 17.500
Fe 7.500 42.500 20.000
Cu 7.500 42.500 22.500
Fe 7.500 42.500 25.000
Cu 7.500 42.500 27.500
Fe 7.500 42.500 30.000
Cu 7.500 42.500 32.500
Fe 7.500 42.500 35.000
Cu 7.500 42.500 37.500
Fe 7.500 42.500 40.000
Cu 7.500 42.500 42.500
Fe 7.500 42.500 45.000
Cu 7.500 42.500 47.500
Fe 7.500 42.500 50.000
Cu 7.500 42.500 52.500
Fe 7.500 42.500 55.000
Cu 7.500 45.000 0.000
Fe 7.500 45.000 2.500
Cu 7.500 45.000 5.000
Fe 7.500 45.000 7.500
Cu 7.500 45.000 10.000
Fe 7.500 45.000 12.500
Cu 7.500 45.000 15.000
Fe 7.500 45.000 17.500
Cu 7.500 45.000 20.000
Fe 7.500 45.000 22.500
Cu 7.500 45.000 25.000
Fe 7.500 45.000 27.500
Cu 7.500 45.000 30.000
Fe 7.500 45.000 32.500
Cu 7.500 45.000 35.000
Fe 7.500 45.000 37.500
Cu 7.500 45.000 40.000
Fe 7.500 45.000 42.500
Cu 7.500 45.000 45.000
Fe 7.500 45.000 47.500
Cu 7.500 45.000 50.000
Fe 7.500 45.000 52.500
Cu 7.500 45.000 55.000
Fe 7.500 47.500 0.000
Cu 7.500 47.500 2.500
Fe 7.500 47.500 5.000
Cu 7.500 47.500 7.500
Fe 7.500 47.500 10.000
Cu 7.500 47.500 12.500
Fe 7.500 47.500 15.000
Cu 7.500 47.500 17.500
Fe 7.500 47.500 20.000
Cu 7.500 47.500 22.500
Fe 7.500 47.500 25.000
Cu 7.500 47.500 27.500
Fe 7.500 47.500 30.000
Cu 7.500 47.500 32.500
Fe 7.500 47.500 35.000
Cu 7.500 47.500 37.500
Fe 7.500 47.500 40.000
Cu 7.500 47.500 42.500
Fe 7.500 47.500 45.000
Cu 7.500 47.500 47.500
Fe 7.500 47.500 50.000
Cu 7.500 47.500 52.500
Fe 7.500 47.500 55.000
Cu 7.500 50.000 0.000
Fe 7.500 50.000 2.500
Cu 7.500 50.000 5.000
Fe 7.500 50.000 7.500
Cu 7.500 50.000 10.000
Fe 7.500 50.000 12.500
Cu 7.500 50.000 15.000
Fe 7.500 50.000 17.500
Cu 7.500 50.000 20.000
Fe 7.500 50.000 22.500
Cu 7.500 50.000 25.000
Fe 7.500 50.000 27.500
Cu 7.500 50.000 30.000
Fe 7.500 50.000 32.500
Cu 7.500 50.000 35.000
Fe 7.500 50.000 37.500
Cu 7.500 50.000 40.000
Fe 7.500 50.000 42.500
Cu 7.500 50.000 45.000
Fe 7.500 50.000 47.500
Cu 7.500 50.000 50.000
Fe 7.500 50.000 52.500
Cu 7.500 50.000 55.000
Fe 7.500 52.500 0.000
Cu 7.500 52.500 2.500
Fe 7.500 52.500 5.000
Cu 7.500 52.500 7.500
Fe 7.500 52.500 10.000
Cu 7.500 52.500 12.500
Fe 7.500 52.500 15.000
Cu 7.500 52.500 17.500
Fe 7.500 52.500 20.000
Cu 7.500 52.500 22.500
Fe 7.500 52.500 25.000
Cu 7.500 52.500 27.500
Fe 7.500 52.500 30.000
Cu 7.500 52.500 32.500
Fe 7.500 52.500 35.000
Cu 7.500 52.500 37.500
Fe 7.500 52.500 40.000
Cu 7.500 52.500 42.500
Fe 7.500 52.500 45.000
Cu 7.500 52.500 47.500
Fe 7.500 52.500 50.000
Cu 7.500 52.500 52.500
Fe 7.500 52.500 55.000
Cu 7.500 55.000 0.000
Fe 7.500 55.000 2.500
Cu 7.500 55.000 5.000
Fe 7.500 55.000 7.500
Cu 7.500 55.000 10.000
Fe 7.500 55.000 12.500
Cu 7.500 55.000 15.000
Fe 7.500 55.000 17.500
Cu 7.500 55.000 20.000
Fe 7.500 55.000 22.500
Cu 7.500 55.000 25.000
Fe 7.500 55.000 27.500
Cu 7.500 55.000 30.000
Fe 7.500 55.000 32.500
Cu 7.500 55.000 35.000
Fe 7.500 55.000 37.500
Cu 7.500 55.000 40.000
Fe 7.500 55.000 42.500
Cu 7.500 55.000 45.000
Fe 7.500 55.000 47.500
Cu 7.500 55.000 50.000
Fe 7.500 55.000 52.500
Cu 7.500 55.000 55.000
Fe 10.000 0.000 0.000
Cu 10.000 0.000 2.500
Fe 10.000 0.000 5.000
Cu 10.000 0.000 7.500
Fe 10.000 0.000 10.000
Cu 10.000 0.000 12.500
Fe 10.000 0.000 15.000
Cu 10.000 0.000 17.500
Fe 10.000 0.000 20.000
Cu 10.000 0.000 22.500
Fe 10.000 0.000 25.000
Cu 10.000 0.000 27.500
Fe 10.000 0.000 30.000
Cu 10.000 0.000 32.500
Fe 10.000 0.000 35.000
Cu 10.000 0.000 37.500
Fe 10.000 0.000 40.000
Cu 10.000 0.000 42.500
Fe 10.000 0.000 45.000
Cu 10.000 0.000 47.500
Fe 10.000 0.000 50.000
Cu 10.000 0.000 52.500
Fe 10.000 0.000 55.000
Cu 10.000 2.500 0.000
Fe 10.000 2.500 2.500
Cu 10.000 2.500 5.000
Fe 10.000 2.500 7.500
Cu 10.000 2.500 10.000
Fe 10.000 2.500 12.500
Cu 10.000 2.500 15.000
Fe 10.000 2.500 17.500
Cu 10.000 2.500 20.000
Fe 10.000 2.500 22.500
Cu 10.000 2.500 25.000
Fe 10.000 2.500 27.500
Cu 10.000 2.500 30.000
Fe 10.000 2.500 32.500
Cu 10.000 2.500 35.000
Fe 10.000 2.500 37.500
Cu 10.000 2.500 40.000
Fe 10.000 2.500 42.500
Cu 10.000 2.500 45.000
Fe 10.000 2.500 47.500
Cu 10.000 2.500 50.000
Fe 10.000 2.500 52.500
Cu 10.000 2.500 55.000
Fe 10.000 5.000 0.000
Cu 10.000 5.000 2.500
Fe 10.000 5.000 5.000
Cu 10.000 5.000 7.500
Fe 10.000 5.000 10.000
Cu 10.000 5.000 12.500
Fe 10.000 5.000 15.000
Cu 10.000 5.000 17.500
Fe 10.000 5.000 20.000
Cu 10.000 5.000 22.500
Fe 10.000 5.000 25.000
Cu 10.000 5.000 27.500
Fe 10.000 5.000 30.000
Cu 10.000 5.000 32.500
Fe 10.000 5.000 35.000
Cu 10.000 5.000 37.500
Fe 10.000 5.000 40.000
Cu 10.000 5.000 42.500
Fe 10.000 5.000 45.000
Cu 10.000 5.000 47.500
Fe 10.000 5.000 50.000
Cu 10.000 5.000 52.500
Fe 10.000 5.000 55.000
Cu 10.000 7.500 0.000
Fe 10.000 7.500 2.500
Cu 10.000 7.500 5.000
Fe 10.000 7.500 7.500
Cu 10.000 7.500 10.000
Fe 10.000 7.500 12.500
Cu 10.000 7.500 15.000
Fe 10.000 7.500 17.500
Cu 10.000 7.500 20.000
Fe 10.000 7.500 22.500
Cu 10.000 7.500 25.000
Fe 10.000 7.500 27.500
Cu 10.000 7.500 30.000
Fe 10.000 7.500 32.500
Cu 10.000 7.500 35.000
Fe 10.000 7.500 37.500
Cu 10.000 7.500 40.000
Fe 10.000 7.500 42.500
Cu 10.000 7.500 45.000
Fe 10.000 7.500 47.500
Cu 10.000 7.500 50.000
Fe 10.000 7.500 52.500
Cu 10.000 7.500 55.000
Fe 10.000 10.000 0.000
Cu 10.000 10.000 2.500
Fe 10.000 10.000 5.000
Cu 10.000 10.000 7.500
Fe 10.000 10.000 10.000
Cu 10.000 10.000 12.500
Fe 10.000 10.000 15.000
Cu 10.000 10.000 17.500
Fe 10.000 10.000 20.000
Cu 10.000 10.000 22.500
Fe 10.000 10.000 25.000
Cu 10.000 10.000 27.500
Fe 10.000 10.000 30.000
Cu 10.000 10.000 32.500
Fe 10.000 10.000 35.000
Cu 10.000 10.000 37.500
Fe 10.000 10.000 40.000
Cu 10.000 10.000 42.500
Fe 10.000 10.000 45.000
Cu 10.000 10.000 47.500
Fe 10.000 10.000 50.000
Cu 10.000 10.000 52.500
Fe 10.000 10.000 55.000
Cu 10.000 12.500 0.000
Fe 10.000 12.500 2.500
Cu 10.000 12.500 5.000
Fe 10.000 12.500 7.500
Cu 10.000 12.500 10.000
Fe 10.000 12.500 12.500
Cu 10.000 12.500 15.000
Fe 10.000 12.500 17.500
Cu 10.000 12.500 20.000
Fe 10.000 12.500 22.500
Cu 10.000 12.500 25.000
Fe 10.000 12.500 27.500
Cu 10.000 12.500 30.000
Fe 10.000 12.500 32.500
Cu 10.000 12.500 35.000
Fe 10.000 12.500 37.500
Cu 10.000 12.500 40.000
Fe 10.000 12.500 42.500
Cu 10.000 12.500 45.000
Fe 10.000 12.500 47.500
Cu 10.000 12.500 50.000
Fe 10.000 12.500 52.500
Cu 10.000 12.500 55.000
Fe 10.000 15.000 0.000
Cu 10.000 15.000 2.500
Fe 10.000 15.000 5.000
Cu 10.000 15.000 7.500
Fe 10.000 15.000 10.000
Cu 10.000 15.000 12.500
Fe 10.000 15.000 15.000
Cu 10.000 15.000 17.500
Fe 10.000 15.000 20.000
Cu 10.000 15.000 22.500
Fe 10.000 15.000 25.000
Cu 10.000 15.000 27.500
Fe 10.000 15.000 30.000
Cu 10.000 15.000 32.500
Fe 10.000 15.000 35.000
Cu 10.000 15.000 37.500
Fe 10.000 15.000 40.000
Cu 10.000 15.000 42.500
Fe 10.000 15.000 45.000
Cu 10.000 15.000 47.500
Fe 10.000 15.000 50.000
Cu 10.000 15.000 52.500
Fe 10.000 15.000 55.000
Cu 10.000 17.500 0.000
Fe 10.000 17.500 2.500
Cu 10.000 17.500 5.000
Fe 10.000 17.500 7.500
Cu 10.000 17.500 10.000
Fe 10.000 17.500 12.500
Cu 10.000 17.500 15.000
Fe 10.000 17.500 17.500
Cu 10.000 17.500 20.000
Fe 10.000 17.500 22.500
Cu 10.000 17.500 25.000
Fe 10.000 17.500 27.500
Cu 10.000 17.500 30.000
Fe 10.000 17.500 32.500
Cu 10.000 17.500 35.000
Fe 10.000 17.500 37.500
Cu 10.000 17.500 40.000
Fe 10.000 17.500 42.500
Cu 10.000 17.500 45.000
Fe 10.000 17.500 47.500
Cu 10.000 17.500 50.000
Fe 10.000 17.500 52.500
Cu 10.000 17.500 55.000
Fe 10.000 20.000 0.000
Cu 10.000 20.000 2.500
Fe 10.000 20.000 5.000
Cu 10.000 20.000 7.500
Fe 10.000 20.000 10.000
Cu 10.000 20.000 12.500
Fe 10.000 20.000 15.000
Cu 10.000 20.000 17.500
Fe 10.000 20.000 20.000
Cu 10.000 20.000 22.500
Fe 10.000 20.000 25.000
Cu 10.000 20.000 27.500
Fe 10.000 20.000 30.000
Cu 10.000 20.000 32.500
Fe 10.000 20.000 35.000
Cu 10.000 20.000 37.500
Fe 10.000 20.000 40.000
Cu 10.000 20.000 42.500
Fe 10.000 20.000 45.000
Cu 10.000 20.000 47.500
Fe 10.000 20.000 50.000
Cu 10.000 20.000 52.500
Fe 10.000 20.000 55.000
Cu 10.000 22.500 0.000
Fe 10.000 22.500 2.500
Cu 10.000 22.500 5.000
Fe 10.000 22.500 7.500
Cu 10.000 22.500 10.000
Fe 10.000 22.500 12.500
Cu 10.000 22.500 15.000
Fe 10.000 22.500 17.500
Cu 10.000 22.500 20.000
Fe 10.000 22.500 22.500
Cu 10.000 22.500 25.000
Fe 10.000 22.500 27.500
Cu 10.000 22.500 30.000
Fe 10.000 22.500 32.500
Cu 10.000 22.500 35.000
Fe 10.000 22.500 37.500
Cu 10.000 22.500 40.000
Fe 10.000 22.500 42.500
Cu 10.000 22.500 45.000
Fe 10.000 22.500 47.500
Cu 10.000 22.500 50.000
Fe 10.000 22.500 52.500
Cu 10.000 22.500 55.000
Fe 10.000 25.000 0.000
Cu 10.000 25.000 2.500
Fe 10.000 25.000 5.000
Cu 10.000 25.000 7.500
Fe 10.000 25.000 10.000
Cu 10.000 25.000 12.500
Fe 10.000 25.000 15.000
Cu 10.000 25.000 17.500
Fe 10.000 25.000 20.000
Cu 10.000 25.000 22.500
Fe 10.000 25.000 25.000
Cu 10.000 25.000 27.500
Fe 10.000 25.000 30.000
Cu 10.000 25.000 32.500
Fe 10.000 25.000 35.000
Cu 10.000 25.000 37.500
Fe 10.000 25.000 40.000
Cu 10.000 25.000 42.500
Fe 10.000 25.000 45.000
Cu 10.000 25.000 47.500
Fe 10.000 25.000 50.000
Cu 10.000 25.000 52.500
Fe 10.000 25.000 55.000
Cu 10.000 27.500 0.000
Fe 10.000 27.500 2.500
Cu 10.000 27.500 5.000
Fe 10.000 27.500 7.500
Cu 10.000 27.500 10.000
Fe 10.000 27.500 12.500
Cu 10.000 27.500 15.000
Fe 10.000 27.500 17.500
Cu 10.000 27.500 20.000
Fe 10.000 27.500 22.500
Cu 10.000 27.500 25.000
Fe 10.000 27.500 27.500
Cu 10.000 27.500 30.000
Fe 10.000 27.500 32.500
Cu 10.000 27.500 35.000
Fe 10.000 27.500 37.500
Cu 10.000 27.500 40.000
Fe 10.000 27.500 42.500
Cu 10.000 27.500 45.000
Fe 10.000 27.500 47.500
Cu 10.000 27.500 50.000
Fe 10.000 27.500 52.500
Cu 10.000 27.500 55.000
Fe 10.000 30.000 0.000
Cu 10.000 30.000 2.500
Fe 10.000 30.000 5.000
Cu 10.000 30.000 7.500
Fe 10.000 30.000 10.000
Cu 10.000 30.000 12.500
Fe 10.000 30.000 15.000
Cu 10.000 30.000 17.500
Fe 10.000 30.000 20.000
Cu 10.000 30.000 22.500
Fe 10.000 30.000 25.000
Cu 10.000 30.000 27.500
Fe 10.000 30.000 30.000
Cu 10.000 30.000 32.500
Fe 10.000 30.000 35.000
Cu 10.000 30.000 37.500
Fe 10.000 30.000 40.000
Cu 10.000 30.000 42.500
Fe 10.000 30.000 45.000
Cu 10.000 30.000 47.500
Fe 10.000 30.000 50.000
Cu 10.000 30.000 52.500
Fe 10.000 30.000 55.000
Cu 10.000 32.500 0.000
Fe 10.000 32.500 2.500
Cu 10.000 32.500 5.000
Fe 10.000 32.500 7.500
Cu 10.000 32.500 10.000
Fe 10.000 32.500 12.500
Cu 10.000 32.500 15.000
Fe 10.000 32.500 17.500
Cu 10.000 32.500 20.000
Fe 10.000 32.500 22.500
Cu 10.000 32.500 25.000
Fe 10.000 32.500 27.500
Cu 10.000 32.500 30.000
Fe 10.000 32.500 32.500
Cu 10.000 32.500 35.000
Fe 10.000 32.500 37.500
Cu 10.000 32.500 40.000
Fe 10.000 32.500 42.500
Cu 10.000 32.500 45.000
Fe 10.000 32.500 47.500
Cu 10.000 32.500 50.000
Fe 10.000 32.500 52.500
Cu 10.000 32.500 55.000
Fe 10.000 35.000 0.000
Cu 10.000 35.000 2.500
Fe 10.000 35.000 5.000
Cu 10.000 35.000 7.500
Fe 10.000 35.000 10.000
Cu 10.000 35.000 12.500
Fe 10.000 35.000 15.000
Cu 10.000 35.000 17.500
Fe 10.000 35.000 20.000
Cu 10.000 35.000 22.500
Fe 10.000 35.000 25.000
Cu 10.000 35.000 27.500
Fe 10.000 35.000 30.000
Cu 10.000 35.000 32.500
Fe 10.000 35.000 35.000
Cu 10.000 35.000 37.500
Fe 10.000 35.000 40.000
Cu 10.000 35.000 42.500
Fe 10.000 35.000 45.000
Cu 10.000 35.000 47.500
Fe 10.000 35.000 50.000
Cu 10.000 35.000 52.500
Fe 10.000 35.000 55.000
Cu 10.000 37.500 0.000
Fe 10.000 37.500 2.500
Cu 10.000 37.500 5.000
Fe 10.000 37.500 7.500
Cu 10.000 37.500 10.000
Fe 10.000 37.500 12.500
Cu 10.000 37.500 15.000
Fe 10.000 37.500 17.500
Cu 10.000 37.500 20.000
Fe 10.000 37.500 22.500
Cu 10.000 37.500 25.000
Fe 10.000 37.500 27.500
Cu 10.000 37.500 30.000
Fe 10.000 37.500 32.500
Cu 10.000 37.500 35.000
Fe 10.000 37.500 37.500
Cu 10.000 37.500 40.000
Fe 10.000 37.500 42.500
Cu 10.000 37.500 45.000
Fe 10.000 37.500 47.500
Cu 10.000 37.500 50.000
Fe 10.000 37.500 52.500
Cu 10.000 37.500 55.000
Fe 10.000 40.000 0.000
Cu 10.000 40.000 2.500
Fe 10.000 40.000 5.000
Cu 10.000 40.000 7.500
Fe 10.000 40.000 10.000
Cu 10.000 40.000 12.500
Fe 10.000 40.000 15.000
Cu 10.000 40.000 17.500
Fe 10.000 40.000 20.000
Cu 10.000 40.000 22.500
Fe 10.000 40.000 25.000
Cu 10.000 40.000 27.500
Fe 10.000 40.000 30.000
Cu 10.000 40.000 32.500
Fe 10.000 40.000 35.000
Cu 10.000 40.000 37.500
Fe 10.000 40.000 40.000
Cu 10.000 40.000 42.500
Fe 10.000 40.000 45.000
Cu 10.000 40.000 47.500
Fe 10.000 40.000 50.000
Cu 10.000 40.000 52.500
Fe 10.000 40.000 55.000
Cu 10.000 42.500 0.000
Fe 10.000 42.500 2.500
Cu 10.000 42.500 5.000
Fe 10.000 42.500 7.500
Cu 10.000 42.500 10.000
Fe 10.000 42.500 12.500
Cu 10.000 42.500 15.000
Fe 10.000 42.500 17.500
Cu 10.000 42.500 20.000
Fe 10.000 42.500 22.500
Cu 10.000 42.500 25.000
Fe 10.000 42.500 27.500
Cu 10.000 42.500 30.000
Fe 10.000 42.500 32.500
Cu 10.000 42.500 35.000
Fe 10.000 42.500 37.500
Cu 10.000 42.500 40.000
Fe 10.000 42.500 42.500
Cu 10.000 42.500 45.000
Fe 10.000 42.500 47.500
Cu 10.000 42.500 50.000
Fe 10.000 42.500 52.500
Cu 10.000 42.500 55.000
Fe 10.000 45.000 0.000
Cu 10.000 45.000 2.500
Fe 10.000 45.000 5.000
Cu 10.000 45.000 7.500
Fe 10.000 45.000 10.000
Cu 10.000 45.000 12.500
Fe 10.000 45.000 15.000
Cu 10.000 45.000 17.500
Fe 10.000 45.000 20.000
Cu 10.000 45.000 22.500
Fe 10.000 45.000 25.000
Cu 10.000 45.000 27.500
Fe 10.000 45.000 30.000
Cu 10.000 45.000 32.500
Fe 10.000 45.000 35.000
Cu 10.000 45.000 37.500
Fe 10.000 45.000 40.000
Cu 10.000 45.000 42.500
Fe 10.000 45.000 45.000
Cu 10.000 45.000 47.500
Fe 10.000 45.000 50.000
Cu 10.000 45.000 52.500
Fe 10.000 45.000 55.000
Cu 10.000 47.500 0.000
Fe 10.000 47.500 2.500
Cu 10.000 47.500 5.000
Fe 10.000 47.500 7.500
Cu 10.000 47.500 10.000
Fe 10.000 47.500 12.500
Cu 10.000 47.500 15.000
Fe 10.000 47.500 17.500
Cu 10.000 47.500 20.000
Fe 10.000 47.500 22.500
Cu 10.000 47.500 25.000
Fe 10.000 47.500 27.500
Cu 10.000 47.500 30.000
Fe 10.000 47.500 32.500
Cu 10.000 47.500 35.000
Fe 10.000 47.500 37.500
Cu 10.000 47.500 40.000
Fe 10.000 47.500 42.500
Cu 10.000 47.500 45.000
Fe 10.000 47.500 47.500
Cu 10.000 47.500 50.000
Fe 10.000 47.500 52.500
Cu 10.000 47.500 55.000
Fe 10.000 50.000 0.000
Cu 10.000 50.000 2.500
Fe 10.000 50.000 5.000
Cu 10.000 50.000 7.500
Fe 10.000 50.000 10.000
Cu 10.000 50.000 12.500
Fe 10.000 50.000 15.000
Cu 10.000 50.000 17.500
Fe 10.000 50.000 20.000
Cu 10.000 50.000 22.500
Fe 10.000 50.000 25.000
Cu 10.000 50.000 27.500
Fe 10.000 50.000 30.000
Cu 10.000 50.000 32.500
Fe 10.000 50.000 35.000
Cu 10.000 50.000 37.500
Fe 10.000 50.000 40.000
Cu 10.000 50.000 42.500
Fe 10.000 50.000 45.000
Cu 10.000 50.000 47.500
Fe 10.000 50.000 50.000
Cu 10.000 50.000 52.500
Fe 10.000 50.000 55.000
Cu 10.000 52.500 0.000
Fe 10.000 52.500 2.500
Cu 10.000 52.500 5.000
Fe 10.000 52.500 7.500
Cu 10.000 52.500 10.000
Fe 10.000 52.500 12.500
Cu 10.000 52.500 15.000
Fe 10.000 52.500 17.500
Cu 10.000 52.500 20.000
Fe 10.000 52.500 22.500
Cu 10.000 52.500 25.000
Fe 10.000 52.500 27.500
Cu 10.000 52.500 30.000
Fe 10.000 52.500 32.500
Cu 10.000 52.500 35.000
Fe 10.000 52.500 37.500
Cu 10.000 52.500 40.000
Fe 10.000 52.500 42.500
Cu 10.000 52.500 45.000
Fe 10.000 52.500 47.500
Cu 10.000 52.500 50.000
Fe 10.000 52.500 52.500
Cu 10.000 52.500 55.000
Fe 10.000 55.000 0.000
Cu 10.000 55.000 2.500
Fe 10.000 55.000 5.000
Cu 10.000 55.000 7.500
Fe 10.000 55.000 10.000
Cu 10.000 55.000 12.500
Fe 10.000 55.000 15.000
Cu 10.000 55.000 17.500
Fe 10.000 55.000 20.000
Cu 10.000 55.000 22.500
Fe 10.000 55.000 25.000
Cu 10.000 55.000 27.500
Fe 10.000 55.000 30.000
Cu 10.000 55.000 32.500
Fe 10.000 55.000 35.000
Cu 10.000 55.000 37.500
Fe 10.000 55.000 40.000
Cu 10.000 55.000 42.500
Fe 10.000 55.000 45.000
Cu 10.000 55.000 47.500
Fe 10.000 55.000 50.000
Cu 10.000 55.000 52.500
Fe 10.000 55.000 55.000
Cu 12.500 0.000 0.000
Fe 12.500 0.000 2.500
Cu 12.500 0.000 5.000
Fe 12.500 0.000 7.500
Cu 12.500 0.000 10.000
Fe 12.500 0.000 12.500
Cu 12.500 0.000 15.000
Fe 12.500 0.000 17.500
Cu 12.500 0.000 20.000
Fe 12.500 0.000 22.500
Cu 12.500 0.000 25.000
Fe 12.500 0.000 27.500
Cu 12.500 0.000 30.000
Fe 12.500 0.000 32.500
Cu 12.500 0.000 35.000
Fe 12.500 0.000 37.500
Cu 12.500 0.000 40.000
Fe 12.500 0.000 42.500
Cu 12.500 0.000 45.000
Fe 12.500 0.000 47.500
Cu 12.500 0.000 50.000
Fe 12.500 0.000 52.500
Cu 12.500 0.000 55.000
Fe 12.500 2.500 0.000
Cu 12.500 2.500 2.500
Fe 12.500 2.500 5.000
Cu 12.500 2.500 7.500
Fe 12.500 2.500 10.000
Cu 12.500 2.500 12.500
Fe 12.500 2.500 15.000
Cu 12.500 2.500 17.500
Fe 12.500 2.500 20.000
Cu 12.500 2.500 22.500
Fe 12.500 2.500 25.000
Cu 12.500 2.500 27.500
Fe 12.500 2.500 30.000
Cu 12.500 2.500 32.500
Fe 12.500 2.500 35.000
Cu 12.500 2.500 37.500
Fe 12.500 2.500 40.000
Cu 12.500 2.500 42.500
Fe 12.500 2.500 45.000
Cu 12.500 2.500 47.500
Fe 12.500 2.500 50.000
Cu 12.500 2.500 52.500
Fe 12.500 2.500 55.000
Cu 12.500 5.000 0.000
Fe 12.500 5.000 2.500
Cu 12.500 5.000 5.000
Fe 12.500 5.000 7.500
Cu 12.500 5.000 10.000
Fe 12.500 5.000 12.500
Cu 12.500 5.000 15.000
Fe 12.500 5.000 17.500
Cu 12.500 5.000 20.000
Fe 12.500 5.000 22.500
Cu 12.500 5.000 25.000
Fe 12.500 5.000 27.500
Cu 12.500 5.000 30.000
Fe 12.500 5.000 32.500
Cu 12.500 5.000 35.000
Fe 12.500 5.000 37.500
Cu 12.500 5.000 40.000
Fe 12.500 5.000 42.500
Cu 12.500 5.000 45.000
Fe 12.500 5.000 47.500
Cu 12.500 5.000 50.000
Fe 12.500 5.000 52.500
Cu 12.500 5.000 55.000
Fe 12.500 7.500 0.000
Cu 12.500 7.500 2.500
Fe 12.500 7.500 5.000
Cu 12.500 7.500 7.500
Fe 12.500 7.500 10.000
Cu 12.500 7.500 12.500
Fe 12.500 7.500 15.000
Cu 12.500 7.500 17.500
Fe 12.500 7.500 20.000
Cu 12.500 7.500 22.500
Fe 12.500 7.500 25.000
Cu 12.500 7.500 27.500
Fe 12.500 7.500 30.000
Cu 12.500 7.500 32.500
Fe 12.500 7.500 35.000
Cu 12.500 7.500 37.500
Fe 12.500 7.500 40.000
Cu 12.500 7.500 42.500
Fe 12.500 7.500 45.000
Cu 12.500 7.500 47.500
Fe 12.500 7.500 50.000
Cu 12.500 7.500 52.500
Fe 12.500 7.500 55.000
Cu 12.500 10.000 0.000
Fe 12.500 10.000 2.500
Cu 12.500 10.000 5.000
Fe 12.500 10.000 7.500
Cu 12.500 10.000 10.000
Fe 12.500 10.000 12.500
Cu 12.500 10.000 15.000
Fe 12.500 10.000 17.500
Cu 12.500 10.000 20.000
Fe 12.500 10.000 22.500
Cu 12.500 10.000 25.000
Fe 12.500 10.000 27.500
Cu 12.500 10.000 30.000
Fe 12.500 10.000 32.500
Cu 12.500 10.000 35.000
Fe 12.500 10.000 37.500
Cu 12.500 10.000 40.000
Fe 12.500 10.000 42.500
Cu 12.500 10.000 45.000
Fe 12.500 10.000 47.500
Cu 12.500 10.000 50.000
Fe 12.500 10.000 52.500
Cu 12.500 10.000 55.000
Fe 12.500 12.500 0.000
Cu 12.500 12.500 2.500
Fe 12.500 12.500 5.000
Cu 12.500 12.500 7.500
Fe 12.500 12.500 10.000
Cu 12.500 12.500 12.500
Fe 12.500 12.500 15.000
Cu 12.500 12.500 17.500
Fe 12.500 12.500 20.000
Cu 12.500 12.500 22.500
Fe 12.500 12.500 25.000
Cu 12.500 12.500 27.500
Fe 12.500 12.500 30.000
Cu 12.500 12.500 32.500
Fe 12.500 12.500 35.000
Cu 12.500 12.500 37.500
Fe 12.500 12.500 40.000
Cu 12.500 12.500 42.500
Fe 12.500 12.500 45.000
Cu 12.500 12.500 47.500
Fe 12.500 12.500 50.000
Cu 12.500 12.500 52.500
Fe 12.500 12.500 55.000
Cu 12.500 15.000 0.000
Fe 12.500 15.000 2.500
Cu 12.500 15.000 5.000
Fe 12.500 15.000 7.500
Cu 12.500 15.000 10.000
Fe 12.500 15.000 12.500
Cu 12.500 15.000 15.000
Fe 12.500 15.000 17.500
Cu 12.500 15.000 20.000
Fe 12.500 15.000 22.500
Cu 12.500 15.000 25.000
Fe 12.500 15.000 27.500
Cu 12.500 15.000 30.000
Fe 12.500 15.000 32.500
Cu 12.500 15.000 35.000
Fe 12.500 15.000 37.500
Cu 12.500 15.000 40.000
Fe 12.500 15.000 42.500
Cu 12.500 15.000 45.000
Fe 12.500 15.000 47.500
Cu 12.500 15.000 50.000
Fe 12.500 15.000 52.500
Cu 12.500 15.000 55.000
Fe 12.500 17.500 0.000
Cu 12.500 17.500 2.500
Fe 12.500 17.500 5.000
Cu 12.500 17.500 7.500
Fe 12.500 17.500 10.000
Cu 12.500 17.500 12.500
Fe 12.500 17.500 15.000
Cu 12.500 17.500 17.500
Fe 12.500 17.500 20.000
Cu 12.500 17.500 22.500
Fe 12.500 17.500 25.000
Cu 12.500 17.500 27.500
Fe 12.500 17.500 30.000
Cu 12.500 17.500 32.500
Fe 12.500 17.500 35.000
Cu 12.500 17.500 37.500
Fe 12.500 17.500 40.000
Cu 12.500 17.500 42.500
Fe 12.500 17.500 45.000
Cu 12.500 17.500 47.500
Fe 12.500 17.500 50.000
Cu 12.500 17.500 52.500
Fe 12.500 17.500 55.000
Cu 12.500 20.000 0.000
Fe 12.500 20.000 2.500
Cu 12.500 20.000 5.000
Fe 12.500 20.000 7.500
Cu 12.500 20.000 10.000
Fe 12.500 20.000 12.500
Cu 12.500 20.000 15.000
Fe 12.500 20.000 17.500
Cu 12.500 20.000 20.000
Fe 12.500 20.000 22.500
Cu 12.500 20.000 25.000
Fe 12.500 20.000 27.500
Cu 12.500 20.000 30.000
Fe 12.500 20.000 32.500
Cu 12.500 20.000 35.000
Fe 12.500 20.000 37.500
Cu 12.500 20.000 40.000
Fe 12.500 20.000 42.500
Cu 12.500 20.000 45.000
Fe 12.500 20.000 47.500
Cu 12.500 20.000 50.000
Fe 12.500 20.000 52.500
Cu 12.500 20.000 55.000
Fe 12.500 22.500 0.000
Cu 12.500 22.500 2.500
Fe 12.500 22.500 5.000
Cu 12.500 22.500 7.500
Fe 12.500 22.500 10.000
Cu 12.500 22.500 12.500
Fe 12.500 22.500 15.000
Cu 12.500 22.500 17.500
Fe 12.500 22.500 20.000
Cu 12.500 22.500 22.500
Fe 12.500 22.500 25.000
Cu 12.500 22.500 27.500
Fe 12.500 22.500 30.000
Cu 12.500 22.500 32.500
Fe 12.500 22.500 35.000
Cu 12.500 22.500 37.500
Fe 12.500 22.500 40.000
Cu 12.500 22.500 42.500
Fe 12.500 22.500 45.000
Cu 12.500 22.500 47.500
Fe 12.500 22.500 50.000
Cu 12.500 22.500 52.500
Fe 12.500 22.500 55.000
Cu 12.500 25.000 0.000
Fe 12.500 25.000 2.500
Cu 12.500 25.000 5.000
Fe 12.500 25.000 7.500
Cu 12.500 25.000 10.000
Fe 12.500 25.000 12.500
Cu 12.500 25.000 15.000
Fe 12.500 25.000 17.500
Cu 12.500 25.000 20.000
Fe 12.500 25.000 22.500
Cu 12.500 25.000 25.000
Fe 12.500 25.000 27.500
Cu 12.500 25.000 30.000
Fe 12.500 25.000 32.500
Cu 12.500 25.000 35.000
Fe 12.500 25.000 37.500
Cu 12.500 25.000 40.000
Fe 12.500 25.000 42.500
Cu 12.500 25.000 45.000
Fe 12.500 25.000 47.500
Cu 12.500 25.000 50.000
Fe 12.500 25.000 52.500
Cu 12.500 25.000 55.000
Fe 12.500 27.500 0.000
Cu 12.500 27.500 2.500
Fe 12.500 27.500 5.000
Cu 12.500 27.500 7.500
Fe 12.500 27.500 10.000
Cu 12.500 27.500 12.500
Fe 12.500 27.500 15.000
Cu 12.500 27.500 17.500
Fe 12.500 27.500 20.000
Cu 12.500 27.500 22.500
Fe 12.500 27.500 25.000
Cu 12.500 27.500 27.500
Fe 12.500 27.500 30.000
Cu 12.500 27.500 32.500
Fe 12.500 27.500 35.000
Cu 12.500 27.500 37.500
Fe 12.500 27.500 40.000
Cu 12.500 27.500 42.500
Fe 12.500 27.500 45.000
Cu 12.500 27.500 47.500
Fe 12.500 27.500 50.000
Cu 12.500 27.500 52.500
Fe 12.500 27.500 55.000
Cu 12.500 30.000 0.000
Fe 12.500 30.000 2.500
Cu 12.500 30.000 5.000
Fe 12.500 30.000 7.500
Cu 12.500 30.000 10.000
Fe 12.500 30.000 12.500
Cu 12.500 30.000 15.000
Fe 12.500 30.000 17.500
Cu 12.500 30.000 20.000
Fe 12.500 30.000 22.500
Cu 12.500 30.000 25.000
Fe 12.500 30.000 27.500
Cu 12.500 30.000 30.000
Fe 12.500 30.000 32.500
Cu 12.500 30.000 35.000
Fe 12.500 30.000 37.500
Cu 12.500 30.000 40.000
Fe 12.500 30.000 42.500
Cu 12.500 30.000 45.000
Fe 12.500 30.000 47.500
Cu 12.500 30.000 50.000
Fe 12.500 30.000 52.500
Cu 12.500 30.000 55.000
Fe 12.500 32.500 0.000
Cu 12.500 32.500 2.500
Fe 12.500 32.500 5.000
Cu 12.500 32.500 7.500
Fe 12.500 32.500 10.000
Cu 12.500 32.500 12.500
Fe 12.500 32.500 15.000
Cu 12.500 32.500 17.500
Fe 12.500 32.500 20.000
Cu 12.500 32.500 22.500
Fe 12.500 32.500 25.000
Cu 12.500 32.500 27.500
Fe 12.500 32.500 30.000
Cu 12.500 32.500 32.500
Fe 12.500 32.500 35.000
Cu 12.500 32.500 37.500
Fe 12.500 32.500 40.000
Cu 12.500 32.500 42.500
Fe 12.500 32.500 45.000
Cu 12.500 32.500 47.500
Fe 12.500 32.500 50.000
Cu 12.500 32.500 52.500
Fe 12.500 32.500 55.000
Cu 12.500 35.000 0.000
Fe 12.500 35.000 2.500
Cu 12.500 35.000 5.000
Fe 12.500 35.000 7.500
Cu 12.500 35.000 10.000
Fe 12.500 35.000 12.500
Cu 12.500 35.000 15.000
Fe 12.500 35.000 17.500
Cu 12.500 35.000 20.000
Fe 12.500 35.000 22.500
Cu 12.500 35.000 25.000
Fe 12.500 35.000 27.500
Cu 12.500 35.000 30.000
Fe 12.500 35.000 32.500
Cu 12.500 35.000 35.000
Fe 12.500 35.000 37.500
Cu 12.500 35.000 40.000
Fe 12.500 35.000 42.500
Cu 12.500 35.000 45.000
Fe 12.500 35.000 47.500
Cu 12.500 35.000 50.000
Fe 12.500 35.000 52.500
Cu 12.500 35.000 55.000
Fe 12.500 37.500 0.000
Cu 12.500 37.500 2.500
Fe 12.500 37.500 5.000
Cu 12.500 37.500 7.500
Fe 12.500 37.500 10.000
Cu 12.500 37.500 12.500
Fe 12.500 37.500 15.000
Cu 12.500 37.500 17.500
Fe 12.500 37.500 20.000
Cu 12.500 37.500 22.500
Fe 12.500 37.500 25.000
Cu 12.500 37.500 27.500
Fe 12.500 37.500 30.000
Cu 12.500 37.500 32.500
Fe 12.500 37.500 35.000
Cu 12.500 37.500 37.500
Fe 12.500 37.500 40.000
Cu 12.500 37.500 42.500
Fe 12.500 37.500 45.000
Cu 12.500 37.500 47.500
Fe 12.500 37.500 50.000
Cu 12.500 37.500 52.500
Fe 12.500 37.500 55.000
Cu 12.500 40.000 0.000
Fe 12.500 40.000 2.500
Cu 12.500 40.000 5.000
Fe 12.500 40.000 7.500
Cu 12.500 40.000 10.000
Fe 12.500 40.000 12.500
Cu 12.500 40.000 15.000
Fe 12.500 40.000 17.500
Cu 12.500 40.000 20.000
Fe 12.500 40.000 22.500
Cu 12.500 40.000 25.000
Fe 12.500 40.000 27.500
Cu 12.500 40.000 30.000
Fe 12.500 40.000 32.500
Cu 12.500 40.000 35.000
Fe 12.500 40.000 37.500
Cu 12.500 40.000 40.000
Fe 12.500 40.000 42.500
Cu 12.500 40.000 45.000
Fe 12.500 40.000 47.500
Cu 12.500 40.000 50.000
Fe 12.500 40.000 52.500
Cu 12.500 40.000 55.000
Fe 12.500 42.500 0.000
Cu 12.500 42.500 2.500
Fe 12.500 42.500 5.000
Cu 12.500 42.500 7.500
Fe 12.500 42.500 10.000
Cu 12.500 42.500 12.500
Fe 12.500 42.500 15.000
Cu 12.500 42.500 17.500
Fe 12.500 42.500 20.000
Cu 12.500 42.500 22.500
Fe 12.500 42.500 25.000
Cu 12.500 42.500 27.500
Fe 12.500 42.500 30.000
Cu 12.500 42.500 32.500
Fe 12.500 42.500 35.000
Cu 12.500 42.500 37.500
Fe 12.500 42.500 40.000
Cu 12.500 42.500 42.500
Fe 12.500 42.500 45.000
Cu 12.500 42.500 47.500
Fe 12.500 42.500 50.000
Cu 12.500 42.500 52.500
Fe 12.500 42.500 55.000
Cu 12.500 45.000 0.000
Fe 12.500 45.000 2.500
Cu 12.500 45.000 5.000
Fe 12.500 45.000 7.500
Cu 12.500 45.000 10.000
Fe 12.500 45.000 12.500
Cu 12.500 45.000 15.000
Fe 12.500 45.000 17.500
Cu 12.500 45.000 20.000
Fe 12.500 45.000 22.500
Cu 12.500 45.000 25.000
Fe 12.500 45.000 27.500
Cu 12.500 45.000 30.000
Fe 12.500 45.000 32.500
Cu 12.500 45.000 35.000
Fe 12.500 45.000 37.500
Cu 12.500 45.000 40.000
Fe 12.500 45.000 42.500
Cu 12.500 45.000 45.000
Fe 12.500 45.000 47.500
Cu 12.500 45.000 50.000
Fe 12.500 45.000 52.500
Cu 12.500 45.000 55.000
Fe 12.500 47.500 0.000
Cu 12.500 47.500 2.500
Fe 12.500 47.500 5.000
Cu 12.500 47.500 7.500
Fe 12.500 47.500 10.000
Cu 12.500 47.500 12.500
Fe 12.500 47.500 15.000
Cu 12.500 47.500 17.500
Fe 12.500 47.500 20.000
Cu 12.500 47.500 22.500
Fe 12.500 47.500 25.000
Cu 12.500 47.500 27.500
Fe 12.500 47.500 30.000
Cu 12.500 47.500 32.500
Fe 12.500 47.500 35.000
Cu 12.500 47.500 37.500
Fe 12.500 47.500 40.000
Cu 12.500 47.500 42.500
Fe 12.500 47.500 45.000
Cu 12.500 47.500 47.500
Fe 12.500 47.500 50.000
Cu 12.500 47.500 52.500
Fe 12.500 47.500 55.000
Cu 12.500 50.000 0.000
Fe 12.500 50.000 2.500
Cu 12.500 50.000 5.000
Fe 12.500 50.000 7.500
Cu 12.500 50.000 10.000
Fe 12.500 50.000 12.500
Cu 12.500 50.000 15.000
Fe 12.500 50.000 17.500
Cu 12.500 50.000 20.000
Fe 12.500 50.000 22.500
Cu 12.500 50.000 25.000
Fe 12.500 50.000 27.500
Cu 12.500 50.000 30.000
Fe 12.500 50.000 32.500
Cu 12.500 50.000 35.000
Fe 12.500 50.000 37.500
Cu 12.500 50.000 40.000
Fe 12.500 50.000 42.500
Cu 12.500 50.000 45.000
Fe 12.500 50.000 47.500
Cu 12.500 50.000 50.000
Fe 12.500 50.000 52.500
Cu 12.500 50.000 55.000
Fe 12.500 52.500 0.000
Cu 12.500 52.500 2.500
Fe 12.500 52.500 5.000
Cu 12.500 52.500 7.500
Fe 12.500 52.500 10.000
Cu 12.500 52.500 12.500
Fe 12.500 52.500 15.000
Cu 12.500 52.500 17.500
Fe 12.500 52.500 20.000
Cu 12.500 52.500 22.500
Fe 12.500 52.500 25.000
Cu 12.500 52.500 27.500
Fe 12.500 52.500 30.000
Cu 12.500 52.500 32.500
Fe 12.500 52.500 35.000
Cu 12.500 52.500 37.500
Fe 12.500 52.500 40.000
Cu 12.500 52.500 42.500
Fe 12.500 52.500 45.000
Cu 12.500 52.500 47.500
Fe 12.500 52.500 50.000
Cu 12.500 52.500 52.500
Fe 12.500 52.500 55.000
Cu 12.500 55.000 0.000
Fe 12.500 55.000 2.500
Cu 12.500 55.000 5.000
Fe 12.500 55.000 7.500
Cu 12.500 55.000 10.000
Fe 12.500 55.000 12.500
Cu 12.500 55.000 15.000
Fe 12.500 55.000 17.500
Cu 12.500 55.000 20.000
Fe 12.500 55.000 22.500
Cu 12.500 55.000 25.000
Fe 12.500 55.000 27.500
Cu 12.500 55.000 30.000
Fe 12.500 55.000 32.500
Cu 12.500 55.000 35.000
Fe 12.500 55.000 37.500
Cu 12.500 55.000 40.000
Fe 12.500 55.000 42.500
Cu 12.500 55.000 45.000
Fe 12.500 55.000 47.500
Cu 12.500 55.000 50.000
Fe 12.500 55.000 52.500
Cu 12.500 55.000 55.000
Fe 15.000 0.000 0.000
Cu 15.000 0.000 2.500
Fe 15.000 0.000 5.000
Cu 15.000 0.000 7.500
Fe 15.000 0.000 10.000
Cu 15.000 0.000 12.500
Fe 15.000 0.000 15.000
Cu 15.000 0.000 17.500
Fe 15.000 0.000 20.000
Cu 15.000 0.000 22.500
Fe 15.000 0.000 25.000
Cu 15.000 0.000 27.500
Fe 15.000 0.000 30.000
Cu 15.000 0.000 32.500
Fe 15.000 0.000 35.000
Cu 15.000 0.000 37.500
Fe 15.000 0.000 40.000
Cu 15.000 0.000 42.500
Fe 15.000 0.000 45.000
Cu 15.000 0.000 47.500
Fe 15.000 0.000 50.000
Cu 15.000 0.000 52.500
Fe 15.000 0.000 55.000
Cu 15.000 2.500 0.000
Fe 15.000 2.500 2.500
Cu 15.000 2.500 5.000
Fe 15.000 2.500 7.500
Cu 15.000 2.500 10.000
Fe 15.000 2.500 12.500
Cu 15.000 2.500 15.000
Fe 15.000 2.500 17.500
Cu 15.000 2.500 20.000
Fe 15.000 2.500 22.500
Cu 15.000 2.500 25.000
Fe 15.000 2.500 27.500
Cu 15.000 2.500 30.000
Fe 15.000 2.500 32.500
Cu 15.000 2.500 35.000
Fe 15.000 2.500 37.500
Cu 15.000 2.500 40.000
Fe 15.000 2.500 42.500
Cu 15.000 2.500 45.000
Fe 15.000 2.500 47.500
Cu 15.000 2.500 50.000
Fe 15.000 2.500 52.500
Cu 15.000 2.500 55.000
Fe 15.000 5.000 0.000
Cu 15.000 5.000 2.500
Fe 15.000 5.000 5.000
Cu 15.000 5.000 7.500
Fe 15.000 5.000 10.000
Cu 15.000 5.000 12.500
Fe 15.000 5.000 15.000
Cu 15.000 5.000 17.500
Fe 15.000 5.000 20.000
Cu 15.000 5.000 22.500
Fe 15.000 5.000 25.000
Cu 15.000 5.000 27.500
Fe 15.000 5.000 30.000
Cu 15.000 5.000 32.500
Fe 15.000 5.000 35.000
Cu 15.000 5.000 37.500
Fe 15.000 5.000 40.000
Cu 15.000 5.000 42.500
Fe 15.000 5.000 45.000
Cu 15.000 5.000 47.500
Fe 15.000 5.000 50.000
Cu 15.000 5.000 52.500
Fe 15.000 5.000 55.000
Cu 15.000 7.500 0.000
Fe 15.000 7.500 2.500
Cu 15.000 7.500 5.000
Fe 15.000 7.500 7.500
Cu 15.000 7.500 10.000
Fe 15.000 7.500 12.500
Cu 15.000 7.500 15.000
Fe 15.000 7.500 17.500
Cu 15.000 7.500 20.000
Fe 15.000 7.500 22.500
Cu 15.000 7.500 25.000
Fe 15.000 7.500 27.500
Cu 15.000 7.500 30.000
Fe 15.000 7.500 32.500
Cu 15.000 7.500 35.000
Fe 15.000 7.500 37.500
Cu 15.000 7.500 40.000
Fe 15.000 7.500 42.500
Cu 15.000 7.500 45.000
Fe 15.000 7.500 47.500
Cu 15.000 7.500 50.000
Fe 15.000 7.500 52.500
Cu 15.000 7.500 55.000
Fe 15.000 10.000 0.000
Cu 15.000 10.000 2.500
Fe 15.000 10.000 5.000
Cu 15.000 10.000 7.500
Fe 15.000 10.000 10.000
Cu 15.000 10.000 12.500
Fe 15.000 10.000 15.000
Cu 15.000 10.000 17.500
Fe 15.000 10.000 20.000
Cu 15.000 10.000 22.500
Fe 15.000 10.000 25.000
Cu 15.000 10.000 27.500
Fe 15.000 10.000 30.000
Cu 15.000 10.000 32.500
Fe 15.000 10.000 35.000
Cu 15.000 10.000 37.500
Fe 15.000 10.000 40.000
Cu 15.000 10.000 42.500
Fe 15.000 10.000 45.000
Cu 15.000 10.000 47.500
Fe 15.000 10.000 50.000
Cu 15.000 10.000 52.500
Fe 15.000 10.000 55.000
Cu 15.000 12.500 0.000
Fe 15.000 12.500 2.500
Cu 15.000 12.500 5.000
Fe 15.000 12.500 7.500
Cu 15.000 12.500 10.000
Fe 15.000 12.500 12.500
Cu 15.000 12.500 15.000
Fe 15.000 12.500 17.500
Cu 15.000 12.500 20.000
Fe 15.000 12.500 22.500
Cu 15.000 12.500 25.000
Fe 15.000 12.500 27.500
Cu 15.000 12.500 30.000
Fe 15.000 12.500 32.500
Cu 15.000 12.500 35.000
Fe 15.000 12.500 37.500
Cu 15.000 12.500 40.000
Fe 15.000 12.500 42.500
Cu 15.000 12.500 45.000
Fe 15.000 12.500 47.500
Cu 15.000 12.500 50.000
Fe 15.000 12.500 52.500
Cu 15.000 12.500 55.000
Fe 15.000 15.000 0.000
Cu 15.000 15.000 2.500
Fe 15.000 15.000 5.000
Cu 15.000 15.000 7.500
Fe 15.000 15.000 10.000
Cu 15.000 15.000 12.500
Fe 15.000 15.000 15.000
Cu 15.000 15.000 17.500
Fe 15.000 15.000 20.000
Cu 15.000 15.000 22.500
Fe 15.000 15.000 25.000
Cu 15.000 15.000 27.500
Fe 15.000 15.000 30.000
Cu 15.000 15.000 32.500
Fe 15.000 15.000 35.000
Cu 15.000 15.000 37.500
Fe 15.000 15.000 40.000
Cu 15.000 15.000 42.500
Fe 15.000 15.000 45.000
Cu 15.000 15.000 47.500
Fe 15.000 15.000 50.000
Cu 15.000 15.000 52.500
Fe 15.000 15.000 55.000
Cu 15.000 17.500 0.000
Fe 15.000 17.500 2.500
Cu 15.000 17.500 5.000
Fe 15.000 17.500 7.500
Cu 15.000 17.500 10.000
Fe 15.000 17.500 12.500
Cu 15.000 17.500 15.000
Fe 15.000 17.500 17.500
Cu 15.000 17.500 20.000
Fe 15.000 17.500 22.500
Cu 15.000 17.500 25.000
Fe 15.000 17.500 27.500
Cu 15.000 17.500 30.000
Fe 15.000 17.500 32.500
Cu 15.000 17.500 35.000
Fe 15.000 17.500 37.500
Cu 15.000 17.500 40.000
Fe 15.000 17.500 42.500
Cu 15.000 17.500 45.000
Fe 15.000 17.500 47.500
Cu 15.000 17.500 50.000
Fe 15.000 17.500 52.500
Cu 15.000 17.500 55.000
Fe 15.000 20.000 0.000
Cu 15.000 20.000 2.500
Fe 15.000 20.000 5.000
Cu 15.000 20.000 7.500
Fe 15.000 20.000 10.000
Cu 15.000 20.000 12.500
Fe 15.000 20.000 15.000
Cu 15.000 20.000 17.500
Fe 15.000 20.000 20.000
Cu 15.000 20.000 22.500
Fe 15.000 20.000 25.000
Cu 15.000 20.000 27.500
Fe 15.000 20.000 30.000
Cu 15.000 20.000 32.500
Fe 15.000 20.000 35.000
Cu 15.000 20.000 37.500
Fe 15.000 20.000 40.000
Cu 15.000 20.000 42.500
Fe 15.000 20.000 45.000
Cu 15.000 20.000 47.500
Fe 15.000 20.000 50.000
Cu 15.000 20.000 52.500
Fe 15.000 20.000 55.000
Cu 15.000 22.500 0.000
Fe 15.000 22.500 2.500
Cu 15.000 22.500 5.000
Fe 15.000 22.500 7.500
Cu 15.000 22.500 10.000
Fe 15.000 22.500 12.500
Cu 15.000 22.500 15.000
Fe 15.000 22.500 17.500
Cu 15.000 22.500 20.000
Fe 15.000 22.500 22.500
Cu 15.000 22.500 25.000
Fe 15.000 22.500 27.500
Cu 15.000 22.500 30.000
Fe 15.000 22.500 32.500
Cu 15.000 22.500 35.000
Fe 15.000 22.500 37.500
Cu 15.000 22.500 40.000
Fe 15.000 22.500 42.500
Cu 15.000 22.500 45.000
Fe 15.000 22.500 47.500
Cu 15.000 22.500 50.000
Fe 15.000 22.500 52.500
Cu 15.000 22.500 55.000
Fe 15.000 25.000 0.000
Cu 15.000 25.000 2.500
Fe 15.000 25.000 5.000
Cu 15.000 25.000 7.500
Fe 15.000 25.000 10.000
Cu 15.000 25.000 12.500
Fe 15.000 25.000 15.000
Cu 15.000 25.000 17.500
Fe 15.000 25.000 20.000
Cu 15.000 25.000 22.500
Fe 15.000 25.000 25.000
Cu 15.000 25.000 27.500
Fe 15.000 25.000 30.000
Cu 15.000 25.000 32.500
Fe 15.000 25.000 35.000
Cu 15.000 25.000 37.500
Fe 15.000 25.000 40.000
Cu 15.000 25.000 42.500
Fe 15.000 25.000 45.000
Cu 15.000 25.000 47.500
Fe 15.000 25.000 50.000
Cu 15.000 25.000 52.500
Fe 15.000 25.000 55.000
Cu 15.000 27.500 0.000
Fe 15.000 27.500 2.500
Cu 15.000 27.500 5.000
Fe 15.000 27.500 7.500
Cu 15.000 27.500 10.000
Fe 15.000 27.500 12.500
Cu 15.000 27.500 15.000
Fe 15.000 27.500 17.500
Cu 15.000 27.500 20.000
Fe 15.000 27.500 22.500
Cu 15.000 27.500 25.000
Fe 15.000 27.500 27.500
Cu 15.000 27.500 30.000
Fe 15.000 27.500 32.500
Cu 15.000 27.500 35.000
Fe 15.000 27.500 37.500
Cu 15.000 27.500 40.000
Fe 15.000 27.500 42.500
Cu 15.000 27.500 45.000
Fe 15.000 27.500 47.500
Cu 15.000 27.500 50.000
Fe 15.000 27.500 52.500
Cu 15.000 27.500 55.000
Fe 15.000 30.000 0.000
Cu 15.000 30.000 2.500
Fe 15.000 30.000 5.000
Cu 15.000 30.000 7.500
Fe 15.000 30.000 10.000
Cu 15.000 30.000 12.500
Fe 15.000 30.000 15.000
Cu 15.000 30.000 17.500
Fe 15.000 30.000 20.000
Cu 15.000 30.000 22.500
Fe 15.000 30.000 25.000
Cu 15.000 30.000 27.500
Fe 15.000 30.000 30.000
Cu 15.000 30.000 32.500
Fe 15.000 30.000 35.000
Cu 15.000 30.000 37.500
Fe 15.000 30.000 40.000
Cu 15.000 30.000 42.500
Fe 15.000 30.000 45.000
Cu 15.000 30.000 47.500
Fe 15.000 30.000 50.000
Cu 15.000 30.000 52.500
Fe 15.000 30.000 55.000
Cu 15.000 32.500 0.000
Fe 15.000 32.500 2.500
Cu 15.000 32.500 5.000
Fe 15.000 32.500 7.500
Cu 15.000 32.500 10.000
Fe 15.000 32.500 12.500
Cu 15.000 32.500 15.000
Fe 15.000 32.500 17.500
Cu 15.000 32.500 20.000
Fe 15.000 32.500 22.500
Cu 15.000 32.500 25.000
Fe 15.000 32.500 27.500
Cu 15.000 32.500 30.000
Fe 15.000 32.500 32.500
Cu 15.000 32.500 35.000
Fe 15.000 32.500 37.500
Cu 15.000 32.500 40.000
Fe 15.000 32.500 42.500
Cu 15.000 32.500 45.000
Fe 15.000 32.500 47.500
Cu 15.000 32.500 50.000
Fe 15.000 32.500 52.500
Cu 15.000 32.500 55.000
Fe 15.000 35.000 0.000
Cu 15.000 35.000 2.500
Fe 15.000 35.000 5.000
Cu 15.000 35.000 7.500
Fe 15.000 35.000 10.000
Cu 15.000 35.000 12.500
Fe 15.000 35.000 15.000
Cu 15.000 35.000 17.500
Fe 15.000 35.000 20.000
Cu 15.000 35.000 22.500
Fe 15.000 35.000 25.000
Cu 15.000 35.000 27.500
Fe 15.000 35.000 30.000
Cu 15.000 35.000 32.500
Fe 15.000 35.000 35.000
Cu 15.000 35.000 37.500
Fe 15.000 35.000 40.000
Cu 15.000 35.000 42.500
Fe 15.000 35.000 45.000
Cu 15.000 35.000 47.500
Fe 15.000 35.000 50.000
Cu 15.000 35.000 52.500
Fe 15.000 35.000 55.000
Cu 15.000 37.500 0.000
Fe 15.000 37.500 2.500
Cu 15.000 37.500 5.000
Fe 15.000 37.500 7.500
Cu 15.000 37.500 10.000
Fe 15.000 37.500 12.500
Cu 15.000 37.500 15.000
Fe 15.000 37.500 17.500
Cu 15.000 37.500 20.000
Fe 15.000 37.500 22.500
Cu 15.000 37.500 25.000
Fe 15.000 37.500 27.500
Cu 15.000 37.500 30.000
Fe 15.000 37.500 32.500
Cu 15.000 37.500 35.000
Fe 15.000 37.500 37.500
Cu 15.000 37.500 40.000
Fe 15.000 37.500 42.500
Cu 15.000 37.500 45.000
Fe 15.000 37.500 47.500
Cu 15.000 37.500 50.000
Fe 15.000 37.500 52.500
Cu 15.000 37.500 55.000
Fe 15.000 40.000 0.000
Cu 15.000 40.000 2.500
Fe 15.000 40.000 5.000
Cu 15.000 40.000 7.500
Fe 15.000 40.000 10.000
Cu 15.000 40.000 12.500
Fe 15.000 40.000 15.000
Cu 15.000 40.000 17.500
Fe 15.000 40.000 20.000
Cu 15.000 40.000 22.500
Fe 15.000 40.000 25.000
Cu 15.000 40.000 27.500
Fe 15.000 40.000 30.000
Cu 15.000 40.000 32.500
Fe 15.000 40.000 35.000
Cu 15.000 40.000 37.500
Fe 15.000 40.000 40.000
Cu 15.000 40.000 42.500
Fe 15.000 40.000 45.000
Cu 15.000 40.000 47.500
Fe 15.000 40.000 50.000
Cu 15.000 40.000 52.500
Fe 15.000 40.000 55.000
Cu 15.000 42.500 0.000
Fe 15.000 42.500 2.500
Cu 15.000 42.500 5.000
Fe 15.000 42.500 7.500
Cu 15.000 42.500 10.000
Fe 15.000 42.500 12.500
Cu 15.000 42.500 15.000
Fe 15.000 42.500 17.500
Cu 15.000 42.500 20.000
Fe 15.000 42.500 22.500
Cu 15.000 42.500 25.000
Fe 15.000 42.500 27.500
Cu 15.000 42.500 30.000
Fe 15.000 42.500 32.500
Cu 15.000 42.500 35.000
Fe 15.000 42.500 37.500
Cu 15.000 42.500 40.000
Fe 15.000 42.500 42.500
Cu 15.000 42.500 45.000
Fe 15.000 42.500 47.500
Cu 15.000 42.500 50.000
Fe 15.000 42.500 52.500
Cu 15.000 42.500 55.000
Fe 15.000 45.000 0.000
Cu 15.000 45.000 2.500
Fe 15.000 45.000 5.000
Cu 15.000 45.000 7.500
Fe 15.000 45.000 10.000
Cu 15.000 45.000 12.500
Fe 15.000 45.000 15.000
Cu 15.000 45.000 17.500
Fe 15.000 45.000 20.000
Cu 15.000 45.000 22.500
Fe 15.000 45.000 25.000
Cu 15.000 45.000 27.500
Fe 15.000 45.000 30.000
Cu 15.000 45.000 32.500
Fe 15.000 45.000 35.000
Cu 15.000 45.000 37.500
Fe 15.000 45.000 40.000
Cu 15.000 45.000 42.500
Fe 15.000 45.000 45.000
Cu 15.000 45.000 47.500
Fe 15.000 45.000 50.000
Cu 15.000 45.000 52.500
Fe 15.000 45.000 55.000
Cu 15.000 47.500 0.000
Fe 15.000 47.500 2.500
Cu 15.000 47.500 5.000
Fe 15.000 47.500 7.500
Cu 15.000 47.500 10.000
Fe 15.000 47.500 12.500
Cu 15.000 47.500 15.000
Fe 15.000 47.500 17.500
Cu 15.000 47.500 20.000
Fe 15.000 47.500 22.500
Cu 15.000 47.500 25.000
Fe 15.000 47.500 27.500
Cu 15.000 47.500 30.000
Fe 15.000 47.500 32.500
Cu 15.000 47.500 35.000
Fe 15.000 47.500 37.500
Cu 15.000 47.500 40.000
Fe 15.000 47.500 42.500
Cu 15.000 47.500 45.000
Fe 15.000 47.500 47.500
Cu 15.000 47.500 50.000
Fe 15.000 47.500 52.500
Cu 15.000 47.500 55.000
Fe 15.000 50.000 0.000
Cu 15.000 50.000 2.500
Fe 15.000 50.000 5.000
Cu 15.000 50.000 7.500
Fe 15.000 50.000 10.000
Cu 15.000 50.000 12.500
Fe 15.000 50.000 15.000
Cu 15.000 50.000 17.500
Fe 15.000 50.000 20.000
Cu 15.000 50.000 22.500
Fe 15.000 50.000 25.000
Cu 15.000 50.000 27.500
Fe 15.000 50.000 30.000
Cu 15.000 50.000 32.500
Fe 15.000 50.000 35.000
Cu 15.000 50.000 37.500
Fe 15.000 50.000 40.000
Cu 15.000 50.000 42.500
Fe 15.000 50.000 45.000
Cu 15.000 50.000 47.500
Fe 15.000 50.000 50.000
Cu 15.000 50.000 52.500
Fe 15.000 50.000 55.000
Cu 15.000 52.500 0.000
Fe 15.000 52.500 2.500
Cu 15.000 52.500 5.000
Fe 15.000 52.500 7.500
Cu 15.000 52.500 10.000
Fe 15.000 52.500 12.500
Cu 15.000 52.500 15.000
Fe 15.000 52.500 17.500
Cu 15.000 52.500 20.000
Fe 15.000 52.500 22.500
Cu 15.000 52.500 25.000
Fe 15.000 52.500 27.500
Cu 15.000 52.500 30.000
Fe 15.000 52.500 32.500
Cu 15.000 52.500 35.000
Fe 15.000 52.500 37.500
Cu 15.000 52.500 40.000
Fe 15.000 52.500 42.500
Cu 15.000 52.500 45.000
Fe 15.000 52.500 47.500
Cu 15.000 52.500 50.000
Fe 15.000 52.500 52.500
Cu 15.000 52.500 55.000
Fe 15.000 55.000 0.000
Cu 15.000 55.000 2.500
Fe 15.000 55.000 5.000
Cu 15.000 55.000 7.500
Fe 15.000 55.000 10.000
Cu 15.000 55.000 12.500
Fe 15.000 55.000 15.000
Cu 15.000 55.000 17.500
Fe 15.000 55.000 20.000
Cu 15.000 55.000 22.500
Fe 15.000 55.000 25.000
Cu 15.000 55.000 27.500
Fe 15.000 55.000 30.000
Cu 15.000 55.000 32.500
Fe 15.000 55.000 35.000
Cu 15.000 55.000 37.500
Fe 15.000 55.000 40.000
Cu 15.000 55.000 42.500
Fe 15.000 55.000 45.000
Cu 15.000 55.000 47.500
Fe 15.000 55.000 50.000
Cu 15.000 55.000 52.500
Fe 15.000 55.000 55.000
Cu 17.500 0.000 0.000
Fe 17.500 0.000 2.500
Cu 17.500 0.000 5.000
Fe 17.500 0.000 7.500
Cu 17.500 0.000 10.000
Fe 17.500 0.000 12.500
Cu 17.500 0.000 15.000
Fe 17.500 0.000 17.500
Cu 17.500 0.000 20.000
Fe 17.500 0.000 22.500
Cu 17.500 0.000 25.000
Fe 17.500 0.000 27.500
Cu 17.500 0.000 30.000
Fe 17.500 0.000 32.500
Cu 17.500 0.000 35.000
Fe 17.500 0.000 37.500
Cu 17.500 0.000 40.000
Fe 17.500 0.000 42.500
Cu 17.500 0.000 45.000
Fe 17.500 0.000 47.500
Cu 17.500 0.000 50.000
Fe 17.500 0.000 52.500
Cu 17.500 0.000 55.000
Fe 17.500 2.500 0.000
Cu 17.500 2.500 2.500
Fe 17.500 2.500 5.000
Cu 17.500 2.500 7.500
Fe 17.500 2.500 10.000
Cu 17.500 2.500 12.500
Fe 17.500 2.500 15.000
Cu 17.500 2.500 17.500
Fe 17.500 2.500 20.000
Cu 17.500 2.500 22.500
Fe 17.500 2.500 25.000
Cu 17.500 2.500 27.500
Fe 17.500 2.500 30.000
Cu 17.500 2.500 32.500
Fe 17.500 2.500 35.000
Cu 17.500 2.500 37.500
Fe 17.500 2.500 40.000
Cu 17.500 2.500 42.500
Fe 17.500 2.500 45.000
Cu 17.500 2.500 47.500
Fe 17.500 2.500 50.000
Cu 17.500 2.500 52.500
Fe 17.500 2.500 55.000
Cu 17.500 5.000 0.000
Fe 17.500 5.000 2.500
Cu 17.500 5.000 5.000
Fe 17.500 5.000 7.500
Cu 17.500 5.000 10.000
Fe 17.500 5.000 12.500
Cu 17.500 5.000 15.000
Fe 17.500 5.000 17.500
Cu 17.500 5.000 20.000
Fe 17.500 5.000 22.500
Cu 17.500 5.000 25.000
Fe 17.500 5.000 27.500
Cu 17.500 5.000 30.000
Fe 17.500 5.000 32.500
Cu 17.500 5.000 35.000
Fe 17.500 5.000 37.500
Cu 17.500 5.000 40.000
Fe 17.500 5.000 42.500
Cu 17.500 5.000 45.000
Fe 17.500 5.000 47.500
Cu 17.500 5.000 50.000
Fe 17.500 5.000 52.500
Cu 17.500 5.000 55.000
Fe 17.500 7.500 0.000
Cu 17.500 7.500 2.500
Fe 17.500 7.500 5.000
Cu 17.500 7.500 7.500
Fe 17.500 7.500 10.000
Cu 17.500 7.500 12.500
Fe 17.500 7.500 15.000
Cu 17.500 7.500 17.500
Fe 17.500 7.500 20.000
Cu 17.500 7.500 22.500
Fe 17.500 7.500 25.000
Cu 17.500 7.500 27.500
Fe 17.500 7.500 30.000
Cu 17.500 7.500 32.500
Fe 17.500 7.500 35.000
Cu 17.500 7.500 37.500
Fe 17.500 7.500 40.000
Cu 17.500 7.500 42.500
Fe 17.500 7.500 45.000
Cu 17.500 7.500 47.500
Fe 17.500 7.500 50.000
Cu 17.500 7.500 52.500
Fe 17.500 7.500 55.000
Cu 17.500 10.000 0.000
Fe 17.500 10.000 2.500
Cu 17.500 10.000 5.000
Fe 17.500 10.000 7.500
Cu 17.500 10.000 10.000
Fe 17.500 10.000 12.500
Cu 17.500 10.000 15.000
Fe 17.500 10.000 17.500
Cu 17.500 10.000 20.000
Fe 17.500 10.000 22.500
Cu 17.500 10.000 25.000
Fe 17.500 10.000 27.500
Cu 17.500 10.000 30.000
Fe 17.500 10.000 32.500
Cu 17.500 10.000 35.000
Fe 17.500 10.000 37.500
Cu 17.500 10.000 40.000
Fe 17.500 10.000 42.500
Cu 17.500 10.000 45.000
Fe 17.500 10.000 47.500
Cu 17.500 10.000 50.000
Fe 17.500 10.000 52.500
Cu 17.500 10.000 55.000
Fe 17.500 12.500 0.000
Cu 17.500 12.500 2.500
Fe 17.500 12.500 5.000
Cu 17.500 12.500 7.500
Fe 17.500 12.500 10.000
Cu 17.500 12.500 12.500
Fe 17.500 12.500 15.000
Cu 17.500 12.500 17.500
Fe 17.500 12.500 20.000
Cu 17.500 12.500 22.500
Fe 17.500 12.500 25.000
Cu 17.500 12.500 27.500
Fe 17.500 12.500 30.000
Cu 17.500 12.500 32.500
Fe 17.500 12.500 35.000
Cu 17.500 12.500 37.500
Fe 17.500 12.500 40.000
Cu 17.500 12.500 42.500
Fe 17.500 12.500 45.000
Cu 17.500 12.500 47.500
Fe 17.500 12.500 50.000
Cu 17.500 12.500 52.500
Fe 17.500 12.500 55.000
Cu 17.500 15.000 0.000
Fe 17.500 15.000 2.500
Cu 17.500 15.000 5.000
Fe 17.500 15.000 7.500
Cu 17.500 15.000 10.000
Fe 17.500 15.000 12.500
Cu 17.500 15.000 15.000
Fe 17.500 15.000 17.500
Cu 17.500 15.000 20.000
Fe 17.500 15.000 22.500
Cu 17.500 15.000 25.000
Fe 17.500 15.000 27.500
Cu 17.500 15.000 30.000
Fe 17.500 15.000 32.500
Cu 17.500 15.000 35.000
Fe 17.500 15.000 37.500
Cu 17.500 15.000 40.000
Fe 17.500 15.000 42.500
Cu 17.500 15.000 45.000
Fe 17.500 15.000 47.500
Cu 17.500 15.000 50.000
Fe 17.500 15.000 52.500
Cu 17.500 15.000 55.000
Fe 17.500 17.500 0.000
Cu 17.500 17.500 2.500
Fe 17.500 17.500 5.000
Cu 17.500 17.500 7.500
Fe 17.500 17.500 10.000
Cu 17.500 17.500 12.500
Fe 17.500 17.500 15.000
Cu 17.500 17.500 17.500
Fe 17.500 17.500 20.000
Cu 17.500 17.500 22.500
Fe 17.500 17.500 25.000
Cu 17.500 17.500 27.500
Fe 17.500 17.500 30.000
Cu 17.500 17.500 32.500
Fe 17.500 17.500 35.000
Cu 17.500 17.500 37.500
Fe 17.500 17.500 40.000
Cu 17.500 17.500 42.500
Fe 17.500 17.500 45.000
Cu 17.500 17.500 47.500
Fe 17.500 17.500 50.000
Cu 17.500 17.500 52.500
Fe 17.500 17.500 55.000
Cu 17.500 20.000 0.000
Fe 17.500 20.000 2.500
Cu 17.500 20.000 5.000
Fe 17.500 20.000 7.500
Cu 17.500 20.000 10.000
Fe 17.500 20.000 12.500
Cu 17.500 20.000 15.000
Fe 17.500 20.000 17.500
Cu 17.500 20.000 20.000
Fe 17.500 20.000 22.500
Cu 17.500 20.000 25.000
Fe 17.500 20.000 27.500
Cu 17.500 20.000 30.000
Fe 17.500 20.000 32.500
Cu 17.500 20.000 35.000
Fe 17.500 20.000 37.500
Cu 17.500 20.000 40.000
Fe 17.500 20.000 42.500
Cu 17.500 20.000 45.000
Fe 17.500 20.000 47.500
Cu 17.500 20.000 50.000
Fe 17.500 20.000 52.500
Cu 17.500 20.000 55.000
Fe 17.500 22.500 0.000
Cu 17.500 22.500 2.500
Fe 17.500 22.500 5.000
Cu 17.500 22.500 7.500
Fe 17.500 22.500 10.000
Cu 17.500 22.500 12.500
Fe 17.500 22.500 15.000
Cu 17.500 22.500 17.500
Fe 17.500 22.500 20.000
Cu 17.500 22.500 22.500
Fe 17.500 22.500 25.000
Cu 17.500 22.500 27.500
Fe 17.500 22.500 30.000
Cu 17.500 22.500 32.500
Fe 17.500 22.500 35.000
Cu 17.500 22.500 37.500
Fe 17.500 22.500 40.000
Cu 17.500 22.500 42.500
Fe 17.500 22.500 45.000
Cu 17.500 22.500 47.500
Fe 17.500 22.500 50.000
Cu 17.500 22.500 52.500
Fe 17.500 22.500 55.000
Cu 17.500 25.000 0.000
Fe 17.500 25.000 2.500
Cu 17.500 25.000 5.000
Fe 17.500 25.000 7.500
Cu 17.500 25.000 10.000
Fe 17.500 25.000 12.500
Cu 17.500 25.000 15.000
Fe 17.500 25.000 17.500
Cu 17.500 25.000 20.000
Fe 17.500 25.000 22.500
Cu 17.500 25.000 25.000
Fe 17.500 25.000 27.500
Cu 17.500 25.000 30.000
Fe 17.500 25.000 32.500
Cu 17.500 25.000 35.000
Fe 17.500 25.000 37.500
Cu 17.500 25.000 40.000
Fe 17.500 25.000 42.500
Cu 17.500 25.000 45.000
Fe 17.500 25.000 47.500
Cu 17.500 25.000 50.000
Fe 17.500 25.000 52.500
Cu 17.500 25.000 55.000
Fe 17.500 27.500 0.000
Cu 17.500 27.500 2.500
Fe 17.500 27.500 5.000
Cu 17.500 27.500 7.500
Fe 17.500 27.500 10.000
Cu 17.500 27.500 12.500
Fe 17.500 27.500 15.000
Cu 17.500 27.500 17.500
Fe 17.500 27.500 20.000
Cu 17.500 27.500 22.500
Fe 17.500 27.500 25.000
Cu 17.500 27.500 27.500
Fe 17.500 27.500 30.000
Cu 17.500 27.500 32.500
Fe 17.500 27.500 35.000
Cu 17.500 27.500 37.500
Fe 17.500 27.500 40.000
Cu 17.500 27.500 42.500
Fe 17.500 27.500 45.000
Cu 17.500 27.500 47.500
Fe 17.500 27.500 50.000
Cu 17.500 27.500 52.500
Fe 17.500 27.500 55.000
Cu 17.500 30.000 0.000
Fe 17.500 30.000 2.500
Cu 17.500 30.000 5.000
Fe 17.500 30.000 7.500
Cu 17.500 30.000 10.000
Fe 17.500 30.000 12.500
Cu 17.500 30.000 15.000
Fe 17.500 30.000 17.500
Cu 17.500 30.000 20.000
Fe 17.500 30.000 22.500
Cu 17.500 30.000 25.000
Fe 17.500 30.000 27.500
Cu 17.500 30.000 30.000
Fe 17.500 30.000 32.500
Cu 17.500 30.000 35.000
Fe 17.500 30.000 37.500
Cu 17.500 30.000 40.000
Fe 17.500 30.000 42.500
Cu 17.500 30.000 45.000
Fe 17.500 30.000 47.500
Cu 17.500 30.000 50.000
Fe 17.500 30.000 52.500
Cu 17.500 30.000 55.000
Fe 17.500 32.500 0.000
Cu 17.500 32.500 2.500
Fe 17.500 32.500 5.000
Cu 17.500 32.500 7.500
Fe 17.500 32.500 10.000
Cu 17.500 32.500 12.500
Fe 17.500 32.500 15.000
Cu 17.500 32.500 17.500
Fe 17.500 32.500 20.000
Cu 17.500 32.500 22.500
Fe 17.500 32.500 25.000
Cu 17.500 32.500 27.500
Fe 17.500 32.500 30.000
Cu 17.500 32.500 32.500
Fe 17.500 32.500 35.000
Cu 17.500 32.500 37.500
Fe 17.500 32.500 40.000
Cu 17.500 32.500 42.500
Fe 17.500 32.500 45.000
Cu 17.500 32.500 47.500
Fe 17.500 32.500 50.000
Cu 17.500 32.500 52.500
Fe 17.500 32.500 55.000
Cu 17.500 35.000 0.000
Fe 17.500 35.000 2.500
Cu 17.500 35.000 5.000
Fe 17.500 35.000 7.500
Cu 17.500 35.000 10.000
Fe 17.500 35.000 12.500
Cu 17.500 35.000 15.000
Fe 17.500 35.000 17.500
Cu 17.500 35.000 20.000
Fe 17.500 35.000 22.500
Cu 17.500 35.000 25.000
Fe 17.500 35.000 27.500
Cu 17.500 35.000 30.000
Fe 17.500 35.000 32.500
Cu 17.500 35.000 35.000
Fe 17.500 35.000 37.500
Cu 17.500 35.000 40.000
Fe 17.500 35.000 42.500
Cu 17.500 35.000 45.000
Fe 17.500 35.000 47.500
Cu 17.500 35.000 50.000
Fe 17.500 35.000 52.500
Cu 17.500 35.000 55.000
Fe 17.500 37.500 0.000
Cu 17.500 37.500 2.500
Fe 17.500 37.500 5.000
Cu 17.500 37.500 7.500
Fe 17.500 37.500 10.000
Cu 17.500 37.500 12.500
Fe 17.500 37.500 15.000
Cu 17.500 37.500 17.500
Fe 17.500 37.500 20.000
Cu 17.500 37.500 22.500
Fe 17.500 37.500 25.000
Cu 17.500 37.500 27.500
Fe 17.500 37.500 30.000
Cu 17.500 37.500 32.500
Fe 17.500 37.500 35.000
Cu 17.500 37.500 37.500
Fe 17.500 37.500 40.000
Cu 17.500 37.500 42.500
Fe 17.500 37.500 45.000
Cu 17.500 37.500 47.500
Fe 17.500 37.500 50.000
Cu 17.500 37.500 52.500
Fe 17.500 37.500 55.000
Cu 17.500 40.000 0.000
Fe 17.500 40.000 2.500
Cu 17.500 40.000 5.000
Fe 17.500 40.000 7.500
Cu 17.500 40.000 10.000
Fe 17.500 40.000 12.500
Cu 17.500 40.000 15.000
Fe 17.500 40.000 17.500
Cu 17.500 40.000 20.000
Fe 17.500 40.000 22.500
Cu 17.500 40.000 25.000
Fe 17.500 40.000 27.500
Cu 17.500 40.000 30.000
Fe 17.500 40.000 32.500
Cu 17.500 40.000 35.000
Fe 17.500 40.000 37.500
Cu 17.500 40.000 40.000
Fe 17.500 40.000 42.500
Cu 17.500 40.000 45.000
Fe 17.500 40.000 47.500
Cu 17.500 40.000 50.000
Fe 17.500 40.000 52.500
Cu 17.500 40.000 55.000
Fe 17.500 42.500 0.000
Cu 17.500 42.500 2.500
Fe 17.500 42.500 5.000
Cu 17.500 42.500 7.500
Fe 17.500 42.500 10.000
Cu 17.500 42.500 12.500
Fe 17.500 42.500 15.000
Cu 17.500 42.500 17.500
Fe 17.500 42.500 20.000
Cu 17.500 42.500 22.500
Fe 17.500 42.500 25.000
Cu 17.500 42.500 27.500
Fe 17.500 42.500 30.000
Cu 17.500 42.500 32.500
Fe 17.500 42.500 35.000
Cu 17.500 42.500 37.500
Fe 17.500 42.500 40.000
Cu 17.500 42.500 42.500
Fe 17.500 42.500 45.000
Cu 17.500 42.500 47.500
Fe 17.500 42.500 50.000
Cu 17.500 42.500 52.500
Fe 17.500 42.500 55.000
Cu 17.500 45.000 0.000
Fe 17.500 45.000 2.500
Cu 17.500 45.000 5.000
Fe 17.500 45.000 7.500
Cu 17.500 45.000 10.000
Fe 17.500 45.000 12.500
Cu 17.500 45.000 15.000
Fe 17.500 45.000 17.500
Cu 17.500 45.000 20.000
Fe 17.500 45.000 22.500
Cu 17.500 45.000 25.000
Fe 17.500 45.000 27.500
Cu 17.500 45.000 30.000
Fe 17.500 45.000 32.500
Cu 17.500 45.000 35.000
Fe 17.500 45.000 37.500
Cu 17.500 45.000 40.000
Fe 17.500 45.000 42.500
Cu 17.500 45.000 45.000
Fe 17.500 45.000 47.500
Cu 17.500 45.000 50.000
Fe 17.500 45.000 52.500
Cu 17.500 45.000 55.000
Fe 17.500 47.500 0.000
Cu 17.500 47.500 2.500
Fe 17.500 47.500 5.000
Cu 17.500 47.500 7.500
Fe 17.500 47.500 10.000
Cu 17.500 47.500 12.500
Fe 17.500 47.500 15.000
Cu 17.500 47.500 17.500
Fe 17.500 47.500 20.000
Cu 17.500 47.500 22.500
Fe 17.500 47.500 25.000
Cu 17.500 47.500 27.500
Fe 17.500 47.500 30.000
Cu 17.500 47.500 32.500
Fe 17.500 47.500 35.000
Cu 17.500 47.500 37.500
Fe 17.500 47.500 40.000
Cu 17.500 47.500 42.500
Fe 17.500 47.500 45.000
Cu 17.500 47.500 47.500
Fe 17.500 47.500 50.000
Cu 17.500 47.500 52.500
Fe 17.500 47.500 55.000
Cu 17.500 50.000 0.000
Fe 17.500 50.000 2.500
Cu 17.500 50.000 5.000
Fe 17.500 50.000 7.500
Cu 17.500 50.000 10.000
Fe 17.500 50.000 12.500
Cu 17.500 50.000 15.000
Fe 17.500 50.000 17.500
Cu 17.500 50.000 20.000
Fe 17.500 50.000 22.500
Cu 17.500 50.000 25.000
Fe 17.500 50.000 27.500
Cu 17.500 50.000 30.000
Fe 17.500 50.000 32.500
Cu 17.500 50.000 35.000
Fe 17.500 50.000 37.500
Cu 17.500 50.000 40.000
Fe 17.500 50.000 42.500
Cu 17.500 50.000 45.000
Fe 17.500 50.000 47.500
Cu 17.500 50.000 50.000
Fe 17.500 50.000 52.500
Cu 17.500 50.000 55.000
Fe 17.500 52.500 0.000
Cu 17.500 52.500 2.500
Fe 17.500 52.500 5.000
Cu 17.500 52.500 7.500
Fe 17.500 52.500 10.000
Cu 17.500 52.500 12.500
Fe 17.500 52.500 15.000
Cu 17.500 52.500 17.500
Fe 17.500 52.500 20.000
Cu 17.500 52.500 22.500
Fe 17.500 52.500 25.000
Cu 17.500 52.500 27.500
Fe 17.500 52.500 30.000
Cu 17.500 52.500 32.500
Fe 17.500 52.500 35.000
Cu 17.500 52.500 37.500
Fe 17.500 52.500 40.000
Cu 17.500 52.500 42.500
Fe 17.500 52.500 45.000
Cu 17.500 52.500 47.500
Fe 17.500 52.500 50.000
Cu 17.500 52.500 52.500
Fe 17.500 52.500 55.000
Cu 17.500 55.000 0.000
Fe 17.500 55.000 2.500
Cu 17.500 55.000 5.000
Fe 17.500 55.000 7.500
Cu 17.500 55.000 10.000
Fe 17.500 55.000 12.500
Cu 17.500 55.000 15.000
Fe 17.500 55.000 17.500
Cu 17.500 55.000 20.000
Fe 17.500 55.000 22.500
Cu 17.500 55.000 25.000
Fe 17.500 55.000 27.500
Cu 17.500 55.000 30.000
Fe 17.500 55.000 32.500
Cu 17.500 55.000 35.000
Fe 17.500 55.000 37.500
Cu 17.500 55.000 40.000
Fe 17.500 55.000 42.500
Cu 17.500 55.000 45.000
Fe 17.500 55.000 47.500
Cu 17.500 55.000 50.000
Fe 17.500 55.000 52.500
Cu 17.500 55.000 55.000
Fe 20.000 0.000 0.000
Cu 20.000 0.000 2.500
Fe 20.000 0.000 5.000
Cu 20.000 0.000 7.500
Fe 20.000 0.000 10.000
Cu 20.000 0.000 12.500
Fe 20.000 0.000 15.000
Cu 20.000 0.000 17.500
Fe 20.000 0.000 20.000
Cu 20.000 0.000 22.500
Fe 20.000 0.000 25.000
Cu 20.000 0.000 27.500
Fe 20.000 0.000 30.000
Cu 20.000 0.000 32.500
Fe 20.000 0.000 35.000
Cu 20.000 0.000 37.500
Fe 20.000 0.000 40.000
Cu 20.000 0.000 42.500
Fe 20.000 0.000 45.000
Cu 20.000 0.000 47.500
Fe 20.000 0.000 50.000
Cu 20.000 0.000 52.500
Fe 20.000 0.000 55.000
Cu 20.000 2.500 0.000
Fe 20.000 2.500 2.500
Cu 20.000 2.500 5.000
Fe 20.000 2.500 7.500
Cu 20.000 2.500 10.000
Fe 20.000 2.500 12.500
Cu 20.000 2.500 15.000
Fe 20.000 2.500 17.500
Cu 20.000 2.500 20.000
Fe 20.000 2.500 22.500
Cu 20.000 2.500 25.000
Fe 20.000 2.500 27.500
Cu 20.000 2.500 30.000
Fe 20.000 2.500 32.500
Cu 20.000 2.500 35.000
Fe 20.000 2.500 37.500
Cu 20.000 2.500 40.000
Fe 20.000 2.500 42.500
Cu 20.000 2.500 45.000
Fe 20.000 2.500 47.500
Cu 20.000 2.500 50.000
Fe 20.000 2.500 52.500
Cu 20.000 2.500 55.000
Fe 20.000 5.000 0.000
Cu 20.000 5.000 2.500
Fe 20.000 5.000 5.000
Cu 20.000 5.000 7.500
Fe 20.000 5.000 10.000
Cu 20.000 5.000 12.500
Fe 20.000 5.000 15.000
Cu 20.000 5.000 17.500
Fe 20.000 5.000 20.000
Cu 20.000 5.000 22.500
Fe 20.000 5.000 25.000
Cu 20.000 5.000 27.500
Fe 20.000 5.000 30.000
Cu 20.000 5.000 32.500
Fe 20.000 5.000 35.000
Cu 20.000 5.000 37.500
Fe 20.000 5.000 40.000
Cu 20.000 5.000 42.500
Fe 20.000 5.000 45.000
Cu 20.000 5.000 47.500
Fe 20.000 5.000 50.000
Cu 20.000 5.000 52.500
Fe 20.000 5.000 55.000
Cu 20.000 7.500 0.000
Fe 20.000 7.500 2.500
Cu 20.000 7.500 5.000
Fe 20.000 7.500 7.500
Cu 20.000 7.500 10.000
Fe 20.000 7.500 12.500
Cu 20.000 7.500 15.000
Fe 20.000 7.500 17.500
Cu 20.000 7.500 20.000
Fe 20.000 7.500 22.500
Cu 20.000 7.500 25.000
Fe 20.000 7.500 27.500
Cu 20.000 7.500 30.000
Fe 20.000 7.500 32.500
Cu 20.000 7.500 35.000
Fe 20.000 7.500 37.500
Cu 20.000 7.500 40.000
Fe 20.000 7.500 42.500
Cu 20.000 7.500 45.000
Fe 20.000 7.500 47.500
Cu 20.000 7.500 50.000
Fe 20.000 7.500 52.500
Cu 20.000 7.500 55.000
Fe 20.000 10.000 0.000
Cu 20.000 10.000 2.500
Fe 20.000 10.000 5.000
Cu 20.000 10.000 7.500
Fe 20.000 10.000 10.000
Cu 20.000 10.000 12.500
Fe 20.000 10.000 15.000
Cu 20.000 10.000 17.500
Fe 20.000 10.000 20.000
Cu 20.000 10.000 22.500
Fe 20.000 10.000 25.000
Cu 20.000 10.000 27.500
Fe 20.000 10.000 30.000
Cu 20.000 10.000 32.500
Fe 20.000 10.000 35.000
Cu 20.000 10.000 37.500
Fe 20.000 10.000 40.000
Cu 20.000 10.000 42.500
Fe 20.000 10.000 45.000
Cu 20.000 10.000 47.500
Fe 20.000 10.000 50.000
Cu 20.000 10.000 52.500
Fe 20.000 10.000 55.000
Cu 20.000 12.500 0.000
Fe 20.000 12.500 2.500
Cu 20.000 12.500 5.000
Fe 20.000 12.500 7.500
Cu 20.000 12.500 10.000
Fe 20.000 12.500 12.500
Cu 20.000 12.500 15.000
Fe 20.000 12.500 17.500
Cu 20.000 12.500 20.000
Fe 20.000 12.500 22.500
Cu 20.000 12.500 25.000
Fe 20.000 12.500 27.500
Cu 20.000 12.500 30.000
Fe 20.000 12.500 32.500
Cu 20.000 12.500 35.000
Fe 20.000 12.500 37.500
Cu 20.000 12.500 40.000
Fe 20.000 12.500 42.500
Cu 20.000 12.500 45.000
Fe 20.000 12.500 47.500
Cu 20.000 12.500 50.000
Fe 20.000 12.500 52.500
Cu 20.000 12.500 55.000
Fe 20.000 15.000 0.000
Cu 20.000 15.000 2.500
Fe 20.000 15.000 5.000
Cu 20.000 15.000 7.500
Fe 20.000 15.000 10.000
Cu 20.000 15.000 12.500
Fe 20.000 15.000 15.000
Cu 20.000 15.000 17.500
Fe 20.000 15.000 20.000
Cu 20.000 15.000 22.500
Fe 20.000 15.000 25.000
Cu 20.000 15.000 27.500
Fe 20.000 15.000 30.000
Cu 20.000 15.000 32.500
Fe 20.000 15.000 35.000
Cu 20.000 15.000 37.500
Fe 20.000 15.000 40.000
Cu 20.000 15.000 42.500
Fe 20.000 15.000 45.000
Cu 20.000 15.000 47.500
Fe 20.000 15.000 50.000
Cu 20.000 15.000 52.500
Fe 20.000 15.000 55.000
Cu 20.000 17.500 0.000
Fe 20.000 17.500 2.500
Cu 20.000 17.500 5.000
Fe 20.000 17.500 7.500
Cu 20.000 17.500 10.000
Fe 20.000 17.500 12.500
Cu 20.000 17.500 15.000
Fe 20.000 17.500 17.500
Cu 20.000 17.500 20.000
Fe 20.000 17.500 22.500
Cu 20.000 17.500 25.000
Fe 20.000 17.500 27.500
Cu 20.000 17.500 30.000
Fe 20.000 17.500 32.500
Cu 20.000 17.500 35.000
Fe 20.000 17.500 37.500
Cu 20.000 17.500 40.000
Fe 20.000 17.500 42.500
Cu 20.000 17.500 45.000
Fe 20.000 17.500 47.500
Cu 20.000 17.500 50.000
Fe 20.000 17.500 52.500
Cu 20.000 17.500 55.000
Fe 20.000 20.000 0.000
Cu 20.000 20.000 2.500
Fe 20.000 20.000 5.000
Cu 20.000 20.000 7.500
Fe 20.000 20.000 10.000
Cu 20.000 20.000 12.500
Fe 20.000 20.000 15.000
Cu 20.000 20.000 17.500
Fe 20.000 20.000 20.000
Cu 20.000 20.000 22.500
Fe 20.000 20.000 25.000
Cu 20.000 20.000 27.500
Fe 20.000 20.000 30.000
Cu 20.000 20.000 32.500
Fe 20.000 20.000 35.000
Cu 20.000 20.000 37.500
Fe 20.000 20.000 40.000
Cu 20.000 20.000 42.500
Fe 20.000 20.000 45.000
Cu 20.000 20.000 47.500
Fe 20.000 20.000 50.000
Cu 20.000 20.000 52.500
Fe 20.000 20.000 55.000
Cu 20.000 22.500 0.000
Fe 20.000 22.500 2.500
Cu 20.000 22.500 5.000
Fe 20.000 22.500 7.500
Cu 20.000 22.500 10.000
Fe 20.000 22.500 12.500
Cu 20.000 22.500 15.000
Fe 20.000 22.500 17.500
Cu 20.000 22.500 20.000
Fe 20.000 22.500 22.500
Cu 20.000 22.500 25.000
Fe 20.000 22.500 27.500
Cu 20.000 22.500 30.000
Fe 20.000 22.500 32.500
Cu 20.000 22.500 35.000
Fe 20.000 22.500 37.500
Cu 20.000 22.500 40.000
Fe 20.000 22.500 42.500
Cu 20.000 22.500 45.000
Fe 20.000 22.500 47.500
Cu 20.000 22.500 50.000
Fe 20.000 22.500 52.500
Cu 20.000 22.500 55.000
Fe 20.000 25.000 0.000
Cu 20.000 25.000 2.500
Fe 20.000 25.000 5.000
Cu 20.000 25.000 7.500
Fe 20.000 25.000 10.000
Cu 20.000 25.000 12.500
Fe 20.000 25.000 15.000
Cu 20.000 25.000 17.500
Fe 20.000 25.000 20.000
Cu 20.000 25.000 22.500
Fe 20.000 25.000 25.000
Cu 20.000 25.000 27.500
Fe 20.000 25.000 30.000
Cu 20.000 25.000 32.500
Fe 20.000 25.000 35.000
Cu 20.000 25.000 37.500
Fe 20.000 25.000 40.000
Cu 20.000 25.000 42.500
Fe 20.000 25.000 45.000
Cu 20.000 25.000 47.500
Fe 20.000 25.000 50.000
Cu 20.000 25.000 52.500
Fe 20.000 25.000 55.000
Cu 20.000 27.500 0.000
Fe 20.000 27.500 2.500
Cu 20.000 27.500 5.000
Fe 20.000 27.500 7.500
Cu 20.000 27.500 10.000
Fe 20.000 27.500 12.500
Cu 20.000 27.500 15.000
Fe 20.000 27.500 17.500
Cu 20.000 27.500 20.000
Fe 20.000 27.500 22.500
Cu 20.000 27.500 25.000
Fe 20.000 27.500 27.500
Cu 20.000 27.500 30.000
Fe 20.000 27.500 32.500
Cu 20.000 27.500 35.000
Fe 20.000 27.500 37.500
Cu 20.000 27.500 40.000
Fe 20.000 27.500 42.500
Cu 20.000 27.500 45.000
Fe 20.000 27.500 47.500
Cu 20.000 27.500 50.000
Fe 20.000 27.500 52.500
Cu 20.000 27.500 55.000
Fe 20.000 30.000 0.000
Cu 20.000 30.000 2.500
Fe 20.000 30.000 5.000
Cu 20.000 30.000 7.500
Fe 20.000 30.000 10.000
Cu 20.000 30.000 12.500
Fe 20.000 30.000 15.000
Cu 20.000 30.000 17.500
Fe 20.000 30.000 20.000
Cu 20.000 30.000 22.500
Fe 20.000 30.000 25.000
Cu 20.000 30.000 27.500
Fe 20.000 30.000 30.000
Cu 20.000 30.000 32.500
Fe 20.000 30.000 35.000
Cu 20.000 30.000 37.500
Fe 20.000 30.000 40.000
Cu 20.000 30.000 42.500
Fe 20.000 30.000 45.000
Cu 20.000 30.000 47.500
Fe 20.000 30.000 50.000
Cu 20.000 30.000 52.500
Fe 20.000 30.000 55.000
Cu 20.000 32.500 0.000
Fe 20.000 32.500 2.500
Cu 20.000 32.500 5.000
Fe 20.000 32.500 7.500
Cu 20.000 32.500 10.000
Fe 20.000 32.500 12.500
Cu 20.000 32.500 15.000
Fe 20.000 32.500 17.500
Cu 20.000 32.500 20.000
Fe 20.000 32.500 22.500
Cu 20.000 32.500 25.000
Fe 20.000 32.500 27.500
Cu 20.000 32.500 30.000
Fe 20.000 32.500 32.500
Cu 20.000 32.500 35.000
Fe 20.000 32.500 37.500
Cu 20.000 32.500 40.000
Fe 20.000 32.500 42.500
Cu 20.000 32.500 45.000
Fe 20.000 32.500 47.500
Cu 20.000 32.500 50.000
Fe 20.000 32.500 52.500
Cu 20.000 32.500 55.000
Fe 20.000 35.000 0.000
Cu 20.000 35.000 2.500
Fe 20.000 35.000 5.000
Cu 20.000 35.000 7.500
Fe 20.000 35.000 10.000
Cu 20.000 35.000 12.500
Fe 20.000 35.000 15.000
Cu 20.000 35.000 17.500
Fe 20.000 35.000 20.000
Cu 20.000 35.000 22.500
Fe 20.000 35.000 25.000
Cu 20.000 35.000 27.500
Fe 20.000 35.000 30.000
Cu 20.000 35.000 32.500
Fe 20.000 35.000 35.000
Cu 20.000 35.000 37.500
Fe 20.000 35.000 40.000
Cu 20.000 35.000 42.500
Fe 20.000 35.000 45.000
Cu 20.000 35.000 47.500
Fe 20.000 35.000 50.000
Cu 20.000 35.000 52.500
Fe 20.000 35.000 55.000
Cu 20.000 37.500 0.000
Fe 20.000 37.500 2.500
Cu 20.000 37.500 5.000
Fe 20.000 37.500 7.500
Cu 20.000 37.500 10.000
Fe 20.000 37.500 12.500
Cu 20.000 37.500 15.000
Fe 20.000 37.500 17.500
Cu 20.000 37.500 20.000
Fe 20.000 37.500 22.500
Cu 20.000 37.500 25.000
Fe 20.000 37.500 27.500
Cu 20.000 37.500 30.000
Fe 20.000 37.500 32.500
Cu 20.000 37.500 35.000
Fe 20.000 37.500 37.500
Cu 20.000 37.500 40.000
Fe 20.000 37.500 42.500
Cu 20.000 37.500 45.000
Fe 20.000 37.500 47.500
Cu 20.000 37.500 50.000
Fe 20.000 37.500 52.500
Cu 20.000 37.500 55.000
Fe 20.000 40.000 0.000
Cu 20.000 40.000 2.500
Fe 20.000 40.000 5.000
Cu 20.000 40.000 7.500
Fe 20.000 40.000 10.000
Cu 20.000 40.000 12.500
Fe 20.000 40.000 15.000
Cu 20.000 40.000 17.500
Fe 20.000 40.000 20.000
Cu 20.000 40.000 22.500
Fe 20.000 40.000 25.000
Cu 20.000 40.000 27.500
Fe 20.000 40.000 30.000
Cu 20.000 40.000 32.500
Fe 20.000 40.000 35.000
Cu 20.000 40.000 37.500
Fe 20.000 40.000 40.000
Cu 20.000 40.000 42.500
Fe 20.000 40.000 45.000
Cu 20.000 40.000 47.500
Fe 20.000 40.000 50.000
Cu 20.000 40.000 52.500
Fe 20.000 40.000 55.000
Cu 20.000 42.500 0.000
Fe 20.000 42.500 2.500
Cu 20.000 42.500 5.000
Fe 20.000 42.500 7.500
Cu 20.000 42.500 10.000
Fe 20.000 42.500 12.500
Cu 20.000 42.500 15.000
Fe 20.000 42.500 17.500
Cu 20.000 42.500 20.000
Fe 20.000 42.500 22.500
Cu 20.000 42.500 25.000
Fe 20.000 42.500 27.500
Cu 20.000 42.500 30.000
Fe 20.000 42.500 32.500
Cu 20.000 42.500 35.000
Fe 20.000 42.500 37.500
Cu 20.000 42.500 40.000
Fe 20.000 42.500 42.500
Cu 20.000 42.500 45.000
Fe 20.000 42.500 47.500
Cu 20.000 42.500 50.000
Fe 20.000 42.500 52.500
Cu 20.000 42.500 55.000
Fe 20.000 45.000 0.000
Cu 20.000 45.000 2.500
Fe 20.000 45.000 5.000
Cu 20.000 45.000 7.500
Fe 20.000 45.000 10.000
Cu 20.000 45.000 12.500
Fe 20.000 45.000 15.000
Cu 20.000 45.000 17.500
Fe 20.000 45.000 20.000
Cu 20.000 45.000 22.500
Fe 20.000 45.000 25.000
Cu 20.000 45.000 27.500
Fe 20.000 45.000 30.000
Cu 20.000 45.000 32.500
Fe 20.000 45.000 35.000
Cu 20.000 45.000 37.500
Fe 20.000 45.000 40.000
Cu 20.000 45.000 42.500
Fe 20.000 45.000 45.000
Cu 20.000 45.000 47.500
Fe 20.000 45.000 50.000
Cu 20.000 45.000 52.500
Fe 20.000 45.000 55.000
Cu 20.000 47.500 0.000
Fe 20.000 47.500 2.500
Cu 20.000 47.500 5.000
Fe 20.000 47.500 7.500
Cu 20.000 47.500 10.000
Fe 20.000 47.500 12.500
Cu 20.000 47.500 15.000
Fe 20.000 47.500 17.500
Cu 20.000 47.500 20.000
Fe 20.000 47.500 22.500
Cu 20.000 47.500 25.000
Fe 20.000 47.500 27.500
Cu 20.000 47.500 30.000
Fe 20.000 47.500 32.500
Cu 20.000 47.500 35.000
Fe 20.000 47.500 37.500
Cu 20.000 47.500 40.000
Fe 20.000 47.500 42.500
Cu 20.000 47.500 45.000
Fe 20.000 47.500 47.500
Cu 20.000 47.500 50.000
Fe 20.000 47.500 52.500
Cu 20.000 47.500 55.000
Fe 20.000 50.000 0.000
Cu 20.000 50.000 2.500
Fe 20.000 50.000 5.000
Cu 20.000 50.000 7.500
Fe 20.000 50.000 10.000
Cu 20.000 50.000 12.500
Fe 20.000 50.000 15.000
Cu 20.000 50.000 17.500
Fe 20.000 50.000 20.000
Cu 20.000 50.000 22.500
Fe 20.000 50.000 25.000
Cu 20.000 50.000 27.500
Fe 20.000 50.000 30.000
Cu 20.000 50.000 32.500
Fe 20.000 50.000 35.000
Cu 20.000 50.000 37.500
Fe 20.000 50.000 40.000
Cu 20.000 50.000 42.500
Fe 20.000 50.000 45.000
Cu 20.000 50.000 47.500
Fe 20.000 50.000 50.000
Cu 20.000 50.000 52.500
Fe 20.000 50.000 55.000
Cu 20.000 52.500 0.000
Fe 20.000 52.500 2.500
Cu 20.000 52.500 5.000
Fe 20.000 52.500 7.500
Cu 20.000 52.500 10.000
Fe 20.000 52.500 12.500
Cu 20.000 52.500 15.000
Fe 20.000 52.500 17.500
Cu 20.000 52.500 20.000
Fe 20.000 52.500 22.500
Cu 20.000 52.500 25.000
Fe 20.000 52.500 27.500
Cu 20.000 52.500 30.000
Fe 20.000 52.500 32.500
Cu 20.000 52.500 35.000
Fe 20.000 52.500 37.500
Cu 20.000 52.500 40.000
Fe 20.000 52.500 42.500
Cu 20.000 52.500 45.000
Fe 20.000 52.500 47.500
Cu 20.000 52.500 50.000
Fe 20.000 52.500 52.500
Cu 20.000 52.500 55.000
Fe 20.000 55.000 0.000
Cu 20.000 55.000 2.500
Fe 20.000 55.000 5.000
Cu 20.000 55.000 7.500
Fe 20.000 55.000 10.000
Cu 20.000 55.000 12.500
Fe 20.000 55.000 15.000
Cu 20.000 55.000 17.500
Fe 20.000 55.000 20.000
Cu 20.000 55.000 22.500
Fe 20.000 55.000 25.000
Cu 20.000 55.000 27.500
Fe 20.000 55.000 30.000
Cu 20.000 55.000 32.500
Fe 20.000 55.000 35.000
Cu 20.000 55.000 37.500
Fe 20.000 55.000 40.000
Cu 20.000 55.000 42.500
Fe 20.000 55.000 45.000
Cu 20.000 55.000 47.500
Fe 20.000 55.000 50.000
Cu 20.000 55.000 52.500
Fe 20.000 55.000 55.000
Cu 22.500 0.000 0.000
Fe 22.500 0.000 2.500
Cu 22.500 0.000 5.000
Fe 22.500 0.000 7.500
Cu 22.500 0.000 10.000
Fe 22.500 0.000 12.500
Cu 22.500 0.000 15.000
Fe 22.500 0.000 17.500
Cu 22.500 0.000 20.000
Fe 22.500 0.000 22.500
Cu 22.500 0.000 25.000
Fe 22.500 0.000 27.500
Cu 22.500 0.000 30.000
Fe 22.500 0.000 32.500
Cu 22.500 0.000 35.000
Fe 22.500 0.000 37.500
Cu 22.500 0.000 40.000
Fe 22.500 0.000 42.500
Cu 22.500 0.000 45.000
Fe 22.500 0.000 47.500
Cu 22.500 0.000 50.000
Fe 22.500 0.000 52.500
Cu 22.500 0.000 55.000
Fe 22.500 2.500 0.000
Cu 22.500 2.500 2.500
Fe 22.500 2.500 5.000
Cu 22.500 2.500 7.500
Fe 22.500 2.500 10.000
Cu 22.500 2.500 12.500
Fe 22.500 2.500 15.000
Cu 22.500 2.500 17.500
Fe 22.500 2.500 20.000
Cu 22.500 2.500 22.500
Fe 22.500 2.500 25.000
Cu 22.500 2.500 27.500
Fe 22.500 2.500 30.000
Cu 22.500 2.500 32.500
Fe 22.500 2.500 35.000
Cu 22.500 2.500 37.500
Fe 22.500 2.500 40.000
Cu 22.500 2.500 42.500
Fe 22.500 2.500 45.000
Cu 22.500 2.500 47.500
Fe 22.500 2.500 50.000
Cu 22.500 2.500 52.500
Fe 22.500 2.500 55.000
Cu 22.500 5.000 0.000
Fe 22.500 5.000 2.500
Cu 22.500 5.000 5.000
Fe 22.500 5.000 7.500
Cu 22.500 5.000 10.000
Fe 22.500 5.000 12.500
Cu 22.500 5.000 15.000
Fe 22.500 5.000 17.500
Cu 22.500 5.000 20.000
Fe 22.500 5.000 22.500
Cu 22.500 5.000 25.000
Fe 22.500 5.000 27.500
Cu 22.500 5.000 30.000
Fe 22.500 5.000 32.500
Cu 22.500 5.000 35.000
Fe 22.500 5.000 37.500
Cu 22.500 5.000 40.000
Fe 22.500 5.000 42.500
Cu 22.500 5.000 45.000
Fe 22.500 5.000 47.500
Cu 22.500 5.000 50.000
Fe 22.500 5.000 52.500
Cu 22.500 5.000 55.000
Fe 22.500 7.500 0.000
Cu 22.500 7.500 2.500
Fe 22.500 7.500 5.000
Cu 22.500 7.500 7.500
Fe 22.500 7.500 10.000
Cu 22.500 7.500 12.500
Fe 22.500 7.500 15.000
Cu 22.500 7.500 17.500
Fe 22.500 7.500 20.000
Cu 22.500 7.500 22.500
Fe 22.500 7.500 25.000
Cu 22.500 7.500 27.500
Fe 22.500 7.500 30.000
Cu 22.500 7.500 32.500
Fe 22.500 7.500 35.000
Cu 22.500 7.500 37.500
Fe 22.500 7.500 40.000
Cu 22.500 7.500 42.500
Fe 22.500 7.500 45.000
Cu 22.500 7.500 47.500
Fe 22.500 7.500 50.000
Cu 22.500 7.500 52.500
Fe 22.500 7.500 55.000
Cu 22.500 10.000 0.000
Fe 22.500 10.000 2.500
Cu 22.500 10.000 5.000
Fe 22.500 10.000 7.500
Cu 22.500 10.000 10.000
Fe 22.500 10.000 12.500
Cu 22.500 10.000 15.000
Fe 22.500 10.000 17.500
Cu 22.500 10.000 20.000
Fe 22.500 10.000 22.500
Cu 22.500 10.000 25.000
Fe 22.500 10.000 27.500
Cu 22.500 10.000 30.000
Fe 22.500 10.000 32.500
Cu 22.500 10.000 35.000
Fe 22.500 10.000 37.500
Cu 22.500 10.000 40.000
Fe 22.500 10.000 42.500
Cu 22.500 10.000 45.000
Fe 22.500 10.000 47.500
Cu 22.500 10.000 50.000
Fe 22.500 10.000 52.500
Cu 22.500 10.000 55.000
Fe 22.500 12.500 0.000
Cu 22.500 12.500 2.500
Fe 22.500 12.500 5.000
Cu 22.500 12.500 7.500
Fe 22.500 12.500 10.000
Cu 22.500 12.500 12.500
Fe 22.500 12.500 15.000
Cu 22.500 12.500 17.500
Fe 22.500 12.500 20.000
Cu 22.500 12.500 22.500
Fe 22.500 12.500 25.000
Cu 22.500 12.500 27.500
Fe 22.500 12.500 30.000
Cu 22.500 12.500 32.500
Fe 22.500 12.500 35.000
Cu 22.500 12.500 37.500
Fe 22.500 12.500 40.000
Cu 22.500 12.500 42.500
Fe 22.500 12.500 45.000
Cu 22.500 12.500 47.500
Fe 22.500 12.500 50.000
Cu 22.500 12.500 52.500
Fe 22.500 12.500 55.000
Cu 22.500 15.000 0.000
Fe 22.500 15.000 2.500
Cu 22.500 15.000 5.000
Fe 22.500 15.000 7.500
Cu 22.500 15.000 10.000
Fe 22.500 15.000 12.500
Cu 22.500 15.000 15.000
Fe 22.500 15.000 17.500
Cu 22.500 15.000 20.000
Fe 22.500 15.000 22.500
Cu 22.500 15.000 25.000
Fe 22.500 15.000 27.500
Cu 22.500 15.000 30.000
Fe 22.500 15.000 32.500
Cu 22.500 15.000 35.000
Fe 22.500 15.000 37.500
Cu 22.500 15.000 40.000
Fe 22.500 15.000 42.500
Cu 22.500 15.000 45.000
Fe 22.500 15.000 47.500
Cu 22.500 15.000 50.000
Fe 22.500 15.000 52.500
Cu 22.500 15.000 55.000
Fe 22.500 17.500 0.000
Cu 22.500 17.500 2.500
Fe 22.500 17.500 5.000
Cu 22.500 17.500 7.500
Fe 22.500 17.500 10.000
Cu 22.500 17.500 12.500
Fe 22.500 17.500 15.000
Cu 22.500 17.500 17.500
Fe 22.500 17.500 20.000
Cu 22.500 17.500 22.500
Fe 22.500 17.500 25.000
Cu 22.500 17.500 27.500
Fe 22.500 17.500 30.000
Cu 22.500 17.500 32.500
Fe 22.500 17.500 35.000
Cu 22.500 17.500 37.500
Fe 22.500 17.500 40.000
Cu 22.500 17.500 42.500
Fe 22.500 17.500 45.000
Cu 22.500 17.500 47.500
Fe 22.500 17.500 50.000
Cu 22.500 17.500 52.500
Fe 22.500 17.500 55.000
Cu 22.500 20.000 0.000
Fe 22.500 20.000 2.500
Cu 22.500 20.000 5.000
Fe 22.500 20.000 7.500
Cu 22.500 20.000 10.000
Fe 22.500 20.000 12.500
Cu 22.500 20.000 15.000
Fe 22.500 20.000 17.500
Cu 22.500 20.000 20.000
Fe 22.500 20.000 22.500
Cu 22.500 20.000 25.000
Fe 22.500 20.000 27.500
Cu 22.500 20.000 30.000
Fe 22.500 20.000 32.500
Cu 22.500 20.000 35.000
Fe 22.500 20.000 37.500
Cu 22.500 20.000 40.000
Fe 22.500 20.000 42.500
Cu 22.500 20.000 45.000
Fe 22.500 20.000 47.500
Cu 22.500 20.000 50.000
Fe 22.500 20.000 52.500
Cu 22.500 20.000 55.000
Fe 22.500 22.500 0.000
Cu 22.500 22.500 2.500
Fe 22.500 22.500 5.000
Cu 22.500 22.500 7.500
Fe 22.500 22.500 10.000
Cu 22.500 22.500 12.500
Fe 22.500 22.500 15.000
Cu 22.500 22.500 17.500
Fe 22.500 22.500 20.000
Cu 22.500 22.500 22.500
Fe 22.500 22.500 25.000
Cu 22.500 22.500 27.500
Fe 22.500 22.500 30.000
Cu 22.500 22.500 32.500
Fe 22.500 22.500 35.000
Cu 22.500 22.500 37.500
Fe 22.500 22.500 40.000
Cu 22.500 22.500 42.500
Fe 22.500 22.500 45.000
Cu 22.500 22.500 47.500
Fe 22.500 22.500 50.000
Cu 22.500 22.500 52.500
Fe 22.500 22.500 55.000
Cu 22.500 25.000 0.000
Fe 22.500 25.000 2.500
Cu 22.500 25.000 5.000
Fe 22.500 25.000 7.500
Cu 22.500 25.000 10.000
Fe 22.500 25.000 12.500
Cu 22.500 25.000 15.000
Fe 22.500 25.000 17.500
Cu 22.500 25.000 20.000
Fe 22.500 25.000 22.500
Cu 22.500 25.000 25.000
Fe 22.500 25.000 27.500
Cu 22.500 25.000 30.000
Fe 22.500 25.000 32.500
Cu 22.500 25.000 35.000
Fe 22.500 25.000 37.500
Cu 22.500 25.000 40.000
Fe 22.500 25.000 42.500
Cu 22.500 25.000 45.000
Fe 22.500 25.000 47.500
Cu 22.500 25.000 50.000
Fe 22.500 25.000 52.500
Cu 22.500 25.000 55.000
Fe 22.500 27.500 0.000
Cu 22.500 27.500 2.500
Fe 22.500 27.500 5.000
Cu 22.500 27.500 7.500
Fe 22.500 27.500 10.000
Cu 22.500 27.500 12.500
Fe 22.500 27.500 15.000
Cu 22.500 27.500 17.500
Fe 22.500 27.500 20.000
Cu 22.500 27.500 22.500
Fe 22.500 27.500 25.000
Cu 22.500 27.500 27.500
Fe 22.500 27.500 30.000
Cu 22.500 27.500 32.500
Fe 22.500 27.500 35.000
Cu 22.500 27.500 37.500
Fe 22.500 27.500 40.000
Cu 22.500 27.500 42.500
Fe 22.500 27.500 45.000
Cu 22.500 27.500 47.500
Fe 22.500 27.500 50.000
Cu 22.500 27.500 52.500
Fe 22.500 27.500 55.000
Cu 22.500 30.000 0.000
Fe 22.500 30.000 2.500
Cu 22.500 30.000 5.000
Fe 22.500 30.000 7.500
Cu 22.500 30.000 10.000
Fe 22.500 30.000 12.500
Cu 22.500 30.000 15.000
Fe 22.500 30.000 17.500
Cu 22.500 30.000 20.000
Fe 22.500 30.000 22.500
Cu 22.500 30.000 25.000
Fe 22.500 30.000 27.500
Cu 22.500 30.000 30.000
Fe 22.500 30.000 32.500
Cu 22.500 30.000 35.000
Fe 22.500 30.000 37.500
Cu 22.500 30.000 40.000
Fe 22.500 30.000 42.500
Cu 22.500 30.000 45.000
Fe 22.500 30.000 47.500
Cu 22.500 30.000 50.000
Fe 22.500 30.000 52.500
Cu 22.500 30.000 55.000
Fe 22.500 32.500 0.000
Cu 22.500 32.500 2.500
Fe 22.500 32.500 5.000
Cu 22.500 32.500 7.500
Fe 22.500 32.500 10.000
Cu 22.500 32.500 12.500
Fe 22.500 32.500 15.000
Cu 22.500 32.500 17.500
Fe 22.500 32.500 20.000
Cu 22.500 32.500 22.500
Fe 22.500 32.500 25.000
Cu 22.500 32.500 27.500
Fe 22.500 32.500 30.000
Cu 22.500 32.500 32.500
Fe 22.500 32.500 35.000
Cu 22.500 32.500 37.500
Fe 22.500 32.500 40.000
Cu 22.500 32.500 42.500
Fe 22.500 32.500 45.000
Cu 22.500 32.500 47.500
Fe 22.500 32.500 50.000
Cu 22.500 32.500 52.500
Fe 22.500 32.500 55.000
Cu 22.500 35.000 0.000
Fe 22.500 35.000 2.500
Cu 22.500 35.000 5.000
Fe 22.500 35.000 7.500
Cu 22.500 35.000 10.000
Fe 22.500 35.000 12.500
Cu 22.500 35.000 15.000
Fe 22.500 35.000 17.500
Cu 22.500 35.000 20.000
Fe 22.500 35.000 22.500
Cu 22.500 35.000 25.000
Fe 22.500 35.000 27.500
Cu 22.500 35.000 30.000
Fe 22.500 35.000 32.500
Cu 22.500 35.000 35.000
Fe 22.500 35.000 37.500
Cu 22.500 35.000 40.000
Fe 22.500 35.000 42.500
Cu 22.500 35.000 45.000
Fe 22.500 35.000 47.500
Cu 22.500 35.000 50.000
Fe 22.500 35.000 52.500
Cu 22.500 35.000 55.000
Fe 22.500 37.500 0.000
Cu 22.500 37.500 2.500
Fe 22.500 37.500 5.000
Cu 22.500 37.500 7.500
Fe 22.500 37.500 10.000
Cu 22.500 37.500 12.500
Fe 22.500 37.500 15.000
Cu 22.500 37.500 17.500
Fe 22.500 37.500 20.000
Cu 22.500 37.500 22.500
Fe 22.500 37.500 25.000
Cu 22.500 37.500 27.500
Fe 22.500 37.500 30.000
Cu 22.500 37.500 32.500
Fe 22.500 37.500 35.000
Cu 22.500 37.500 37.500
Fe 22.500 37.500 40.000
Cu 22.500 37.500 42.500
Fe 22.500 37.500 45.000
Cu 22.500 37.500 47.500
Fe 22.500 37.500 50.000
Cu 22.500 37.500 52.500
Fe 22.500 37.500 55.000
Cu 22.500 40.000 0.000
Fe 22.500 40.000 2.500
Cu 22.500 40.000 5.000
Fe 22.500 40.000 7.500
Cu 22.500 40.000 10.000
Fe 22.500 40.000 12.500
Cu 22.500 40.000 15.000
Fe 22.500 40.000 17.500
Cu 22.500 40.000 20.000
Fe 22.500 40.000 22.500
Cu 22.500 40.000 25.000
Fe 22.500 40.000 27.500
Cu 22.500 40.000 30.000
Fe 22.500 40.000 32.500
Cu 22.500 40.000 35.000
Fe 22.500 40.000 37.500
Cu 22.500 40.000 40.000
Fe 22.500 40.000 42.500
Cu 22.500 40.000 45.000
Fe 22.500 40.000 47.500
Cu 22.500 40.000 50.000
Fe 22.500 40.000 52.500
Cu 22.500 40.000 55.000
Fe 22.500 42.500 0.000
Cu 22.500 42.500 2.500
Fe 22.500 42.500 5.000
Cu 22.500 42.500 7.500
Fe 22.500 42.500 10.000
Cu 22.500 42.500 12.500
Fe 22.500 42.500 15.000
Cu 22.500 42.500 17.500
Fe 22.500 42.500 20.000
Cu 22.500 42.500 22.500
Fe 22.500 42.500 25.000
Cu 22.500 42.500 27.500
Fe 22.500 42.500 30.000
Cu 22.500 42.500 32.500
Fe 22.500 42.500 35.000
Cu 22.500 42.500 37.500
Fe 22.500 42.500 40.000
Cu 22.500 42.500 42.500
Fe 22.500 42.500 45.000
Cu 22.500 42.500 47.500
Fe 22.500 42.500 50.000
Cu 22.500 42.500 52.500
Fe 22.500 42.500 55.000
Cu 22.500 45.000 0.000
Fe 22.500 45.000 2.500
Cu 22.500 45.000 5.000
Fe 22.500 45.000 7.500
Cu 22.500 45.000 10.000
Fe 22.500 45.000 12.500
Cu 22.500 45.000 15.000
Fe 22.500 45.000 17.500
Cu 22.500 45.000 20.000
Fe 22.500 45.000 22.500
Cu 22.500 45.000 25.000
Fe 22.500 45.000 27.500
Cu 22.500 45.000 30.000
Fe 22.500 45.000 32.500
Cu 22.500 45.000 35.000
Fe 22.500 45.000 37.500
Cu 22.500 45.000 40.000
Fe 22.500 45.000 42.500
Cu 22.500 45.000 45.000
Fe 22.500 45.000 47.500
Cu 22.500 45.000 50.000
Fe 22.500 45.000 52.500
Cu 22.500 45.000 55.000
Fe 22.500 47.500 0.000
Cu 22.500 47.500 2.500
Fe 22.500 47.500 5.000
Cu 22.500 47.500 7.500
Fe 22.500 47.500 10.000
Cu 22.500 47.500 12.500
Fe 22.500 47.500 15.000
Cu 22.500 47.500 17.500
Fe 22.500 47.500 20.000
Cu 22.500 47.500 22.500
Fe 22.500 47.500 25.000
Cu 22.500 47.500 27.500
Fe 22.500 47.500 30.000
Cu 22.500 47.500 32.500
Fe 22.500 47.500 35.000
Cu 22.500 47.500 37.500
Fe 22.500 47.500 40.000
Cu 22.500 47.500 42.500
Fe 22.500 47.500 45.000
Cu 22.500 47.500 47.500
Fe 22.500 47.500 50.000
Cu 22.500 47.500 52.500
Fe 22.500 47.500 55.000
Cu 22.500 50.000 0.000
Fe 22.500 50.000 2.500
Cu 22.500 50.000 5.000
Fe 22.500 50.000 7.500
Cu 22.500 50.000 10.000
Fe 22.500 50.000 12.500
Cu 22.500 50.000 15.000
Fe 22.500 50.000 17.500
Cu 22.500 50.000 20.000
Fe 22.500 50.000 22.500
Cu 22.500 50.000 25.000
Fe 22.500 50.000 27.500
Cu 22.500 50.000 30.000
Fe 22.500 50.000 32.500
Cu 22.500 50.000 35.000
Fe 22.500 50.000 37.500
Cu 22.500 50.000 40.000
Fe 22.500 50.000 42.500
Cu 22.500 50.000 45.000
Fe 22.500 50.000 47.500
Cu 22.500 50.000 50.000
Fe 22.500 50.000 52.500
Cu 22.500 50.000 55.000
Fe 22.500 52.500 0.000
Cu 22.500 52.500 2.500
Fe 22.500 52.500 5.000
Cu 22.500 52.500 7.500
Fe 22.500 52.500 10.000
Cu 22.500 52.500 12.500
Fe 22.500 52.500 15.000
Cu 22.500 52.500 17.500
Fe 22.500 52.500 20.000
Cu 22.500 52.500 22.500
Fe 22.500 52.500 25.000
Cu 22.500 52.500 27.500
Fe 22.500 52.500 30.000
Cu 22.500 52.500 32.500
Fe 22.500 52.500 35.000
Cu 22.500 52.500 37.500
Fe 22.500 52.500 40.000
Cu 22.500 52.500 42.500
Fe 22.500 52.500 45.000
Cu 22.500 52.500 47.500
Fe 22.500 52.500 50.000
Cu 22.500 52.500 52.500
Fe 22.500 52.500 55.000
Cu 22.500 55.000 0.000
Fe 22.500 55.000 2.500
Cu 22.500 55.000 5.000
Fe 22.500 55.000 7.500
Cu 22.500 55.000 10.000
Fe 22.500 55.000 12.500
Cu 22.500 55.000 15.000
Fe 22.500 55.000 17.500
Cu 22.500 55.000 20.000
Fe 22.500 55.000 22.500
Cu 22.500 55.000 25.000
Fe 22.500 55.000 27.500
Cu 22.500 55.000 30.000
Fe 22.500 55.000 32.500
Cu 22.500 55.000 35.000
Fe 22.500 55.000 37.500
Cu 22.500 55.000 40.000
Fe 22.500 55.000 42.500
Cu 22.500 55.000 45.000
Fe 22.500 55.000 47.500
Cu 22.500 55.000 50.000
Fe 22.500 55.000 52.500
Cu 22.500 55.000 55.000
Fe 25.000 0.000 0.000
Cu 25.000 0.000 2.500
Fe 25.000 0.000 5.000
Cu 25.000 0.000 7.500
Fe 25.000 0.000 10.000
Cu 25.000 0.000 12.500
Fe 25.000 0.000 15.000
Cu 25.000 0.000 17.500
Fe 25.000 0.000 20.000
Cu 25.000 0.000 22.500
Fe 25.000 0.000 25.000
Cu 25.000 0.000 27.500
Fe 25.000 0.000 30.000
Cu 25.000 0.000 32.500
Fe 25.000 0.000 35.000
Cu 25.000 0.000 37.500
Fe 25.000 0.000 40.000
Cu 25.000 0.000 42.500
Fe 25.000 0.000 45.000
Cu 25.000 0.000 47.500
Fe 25.000 0.000 50.000
Cu 25.000 0.000 52.500
Fe 25.000 0.000 55.000
Cu 25.000 2.500 0.000
Fe 25.000 2.500 2.500
Cu 25.000 2.500 5.000
Fe 25.000 2.500 7.500
Cu 25.000 2.500 10.000
Fe 25.000 2.500 12.500
Cu 25.000 2.500 15.000
Fe 25.000 2.500 17.500
Cu 25.000 2.500 20.000
Fe 25.000 2.500 22.500
Cu 25.000 2.500 25.000
Fe 25.000 2.500 27.500
Cu 25.000 2.500 30.000
Fe 25.000 2.500 32.500
Cu 25.000 2.500 35.000
Fe 25.000 2.500 37.500
Cu 25.000 2.500 40.000
Fe 25.000 2.500 42.500
Cu 25.000 2.500 45.000
Fe 25.000 2.500 47.500
Cu 25.000 2.500 50.000
Fe 25.000 2.500 52.500
Cu 25.000 2.500 55.000
Fe 25.000 5.000 0.000
Cu 25.000 5.000 2.500
Fe 25.000 5.000 5.000
Cu 25.000 5.000 7.500
Fe 25.000 5.000 10.000
Cu 25.000 5.000 12.500
Fe 25.000 5.000 15.000
Cu 25.000 5.000 17.500
Fe 25.000 5.000 20.000
Cu 25.000 5.000 22.500
Fe 25.000 5.000 25.000
Cu 25.000 5.000 27.500
Fe 25.000 5.000 30.000
Cu 25.000 5.000 32.500
Fe 25.000 5.000 35.000
Cu 25.000 5.000 37.500
Fe 25.000 5.000 40.000
Cu 25.000 5.000 42.500
Fe 25.000 5.000 45.000
Cu 25.000 5.000 47.500
Fe 25.000 5.000 50.000
Cu 25.000 5.000 52.500
Fe 25.000 5.000 55.000
Cu 25.000 7.500 0.000
Fe 25.000 7.500 2.500
Cu 25.000 7.500 5.000
Fe 25.000 7.500 7.500
Cu 25.000 7.500 10.000
Fe 25.000 7.500 12.500
Cu 25.000 7.500 15.000
Fe 25.000 7.500 17.500
Cu 25.000 7.500 20.000
Fe 25.000 7.500 22.500
Cu 25.000 7.500 25.000
Fe 25.000 7.500 27.500
Cu 25.000 7.500 30.000
Fe 25.000 7.500 32.500
Cu 25.000 7.500 35.000
Fe 25.000 7.500 37.500
Cu 25.000 7.500 40.000
Fe 25.000 7.500 42.500
Cu 25.000 7.500 45.000
Fe 25.000 7.500 47.500
Cu 25.000 7.500 50.000
Fe 25.000 7.500 52.500
Cu 25.000 7.500 55.000
Fe 25.000 10.000 0.000
Cu 25.000 10.000 2.500
Fe 25.000 10.000 5.000
Cu 25.000 10.000 7.500
Fe 25.000 10.000 10.000
Cu 25.000 10.000 12.500
Fe 25.000 10.000 15.000
Cu 25.000 10.000 17.500
Fe 25.000 10.000 20.000
Cu 25.000 10.000 22.500
Fe 25.000 10.000 25.000
Cu 25.000 10.000 27.500
Fe 25.000 10.000 30.000
Cu 25.000 10.000 32.500
Fe 25.000 10.000 35.000
Cu 25.000 10.000 37.500
Fe 25.000 10.000 40.000
Cu 25.000 10.000 42.500
Fe 25.000 10.000 45.000
Cu 25.000 10.000 47.500
Fe 25.000 10.000 50.000
Cu 25.000 10.000 52.500
Fe 25.000 10.000 55.000
Cu 25.000 12.500 0.000
Fe 25.000 12.500 2.500
Cu 25.000 12.500 5.000
Fe 25.000 12.500 7.500
Cu 25.000 12.500 10.000
Fe 25.000 12.500 12.500
Cu 25.000 12.500 15.000
Fe 25.000 12.500 17.500
Cu 25.000 12.500 20.000
Fe 25.000 12.500 22.500
Cu 25.000 12.500 25.000
Fe 25.000 12.500 27.500
Cu 25.000 12.500 30.000
Fe 25.000 12.500 32.500
Cu 25.000 12.500 35.000
Fe 25.000 12.500 37.500
Cu 25.000 12.500 40.000
Fe 25.000 12.500 42.500
Cu 25.000 12.500 45.000
Fe 25.000 12.500 47.500
Cu 25.000 12.500 50.000
Fe 25.000 12.500 52.500
Cu 25.000 12.500 55.000
Fe 25.000 15.000 0.000
Cu 25.000 15.000 2.500
Fe 25.000 15.000 5.000
Cu 25.000 15.000 7.500
Fe 25.000 15.000 10.000
Cu 25.000 15.000 12.500
Fe 25.000 15.000 15.000
Cu 25.000 15.000 17.500
Fe 25.000 15.000 20.000
Cu 25.000 15.000 22.500
Fe 25.000 15.000 25.000
Cu 25.000 15.000 27.500
Fe 25.000 15.000 30.000
Cu 25.000 15.000 32.500
Fe 25.000 15.000 35.000
Cu 25.000 15.000 37.500
Fe 25.000 15.000 40.000
Cu 25.000 15.000 42.500
Fe 25.000 15.000 45.000
Cu 25.000 15.000 47.500
Fe 25.000 15.000 50.000
Cu 25.000 15.000 52.500
Fe 25.000 15.000 55.000
Cu 25.000 17.500 0.000
Fe 25.000 17.500 2.500
Cu 25.000 17.500 5.000
Fe 25.000 17.500 7.500
Cu 25.000 17.500 10.000
Fe 25.000 17.500 12.500
Cu 25.000 17.500 15.000
Fe 25.000 17.500 17.500
Cu 25.000 17.500 20.000
Fe 25.000 17.500 22.500
Cu 25.000 17.500 25.000
Fe 25.000 17.500 27.500
Cu 25.000 17.500 30.000
Fe 25.000 17.500 32.500
Cu 25.000 17.500 35.000
Fe 25.000 17.500 37.500
Cu 25.000 17.500 40.000
Fe 25.000 17.500 42.500
Cu 25.000 17.500 45.000
Fe 25.000 17.500 47.500
Cu 25.000 17.500 50.000
Fe 25.000 17.500 52.500
Cu 25.000 17.500 55.000
Fe 25.000 20.000 0.000
Cu 25.000 20.000 2.500
Fe 25.000 20.000 5.000
Cu 25.000 20.000 7.500
Fe 25.000 20.000 10.000
Cu 25.000 20.000 12.500
Fe 25.000 20.000 15.000
Cu 25.000 20.000 17.500
Fe 25.000 20.000 20.000
Cu 25.000 20.000 22.500
Fe 25.000 20.000 25.000
Cu 25.000 20.000 27.500
Fe 25.000 20.000 30.000
Cu 25.000 20.000 32.500
Fe 25.000 20.000 35.000
Cu 25.000 20.000 37.500
Fe 25.000 20.000 40.000
Cu 25.000 20.000 42.500
Fe 25.000 20.000 45.000
Cu 25.000 20.000 47.500
Fe 25.000 20.000 50.000
Cu 25.000 20.000 52.500
Fe 25.000 20.000 55.000
Cu 25.000 22.500 0.000
Fe 25.000 22.500 2.500
Cu 25.000 22.500 5.000
Fe 25.000 22.500 7.500
Cu 25.000 22.500 10.000
Fe 25.000 22.500 12.500
Cu 25.000 22.500 15.000
Fe 25.000 22.500 17.500
Cu 25.000 22.500 20.000
Fe 25.000 22.500 22.500
Cu 25.000 22.500 25.000
Fe 25.000 22.500 27.500
Cu 25.000 22.500 30.000
Fe 25.000 22.500 32.500
Cu 25.000 22.500 35.000
Fe 25.000 22.500 37.500
Cu 25.000 22.500 40.000
Fe 25.000 22.500 42.500
Cu 25.000 22.500 45.000
Fe 25.000 22.500 47.500
Cu 25.000 22.500 50.000
Fe 25.000 22.500 52.500
Cu 25.000 22.500 55.000
Fe 25.000 25.000 0.000
Cu 25.000 25.000 2.500
Fe 25.000 25.000 5.000
Cu 25.000 25.000 7.500
Fe 25.000 25.000 10.000
Cu 25.000 25.000 12.500
Fe 25.000 25.000 15.000
Cu 25.000 25.000 17.500
Fe 25.000 25.000 20.000
Cu 25.000 25.000 22.500
Fe 25.000 25.000 25.000
Cu 25.000 25.000 27.500
Fe 25.000 25.000 30.000
Cu 25.000 25.000 32.500
Fe 25.000 25.000 35.000
Cu 25.000 25.000 37.500
Fe 25.000 25.000 40.000
Cu 25.000 25.000 42.500
Fe 25.000 25.000 45.000
Cu 25.000 25.000 47.500
Fe 25.000 25.000 50.000
Cu 25.000 25.000 52.500
Fe 25.000 25.000 55.000
Cu 25.000 27.500 0.000
Fe 25.000 27.500 2.500
Cu 25.000 27.500 5.000
Fe 25.000 27.500 7.500
Cu 25.000 27.500 10.000
Fe 25.000 27.500 12.500
Cu 25.000 27.500 15.000
Fe 25.000 27.500 17.500
Cu 25.000 27.500 20.000
Fe 25.000 27.500 22.500
Cu 25.000 27.500 25.000
Fe 25.000 27.500 27.500
Cu 25.000 27.500 30.000
Fe 25.000 27.500 32.500
Cu 25.000 27.500 35.000
Fe 25.000 27.500 37.500
Cu 25.000 27.500 40.000
Fe 25.000 27.500 42.500
Cu 25.000 27.500 45.000
Fe 25.000 27.500 47.500
Cu 25.000 27.500 50.000
Fe 25.000 27.500 52.500
Cu 25.000 27.500 55.000
Fe 25.000 30.000 0.000
Cu 25.000 30.000 2.500
Fe 25.000 30.000 5.000
Cu 25.000 30.000 7.500
Fe 25.000 30.000 10.000
Cu 25.000 30.000 12.500
Fe 25.000 30.000 15.000
Cu 25.000 30.000 17.500
Fe 25.000 30.000 20.000
Cu 25.000 30.000 22.500
Fe 25.000 30.000 25.000
Cu 25.000 30.000 27.500
Fe 25.000 30.000 30.000
Cu 25.000 30.000 32.500
Fe 25.000 30.000 35.000
Cu 25.000 30.000 37.500
Fe 25.000 30.000 40.000
Cu 25.000 30.000 42.500
Fe 25.000 30.000 45.000
Cu 25.000 30.000 47.500
Fe 25.000 30.000 50.000
Cu 25.000 30.000 52.500
Fe 25.000 30.000 55.000
Cu 25.000 32.500 0.000
Fe 25.000 32.500 2.500
Cu 25.000 32.500 5.000
Fe 25.000 32.500 7.500
Cu 25.000 32.500 10.000
Fe 25.000 32.500 12.500
Cu 25.000 32.500 15.000
Fe 25.000 32.500 17.500
Cu 25.000 32.500 20.000
Fe 25.000 32.500 22.500
Cu 25.000 32.500 25.000
Fe 25.000 32.500 27.500
Cu 25.000 32.500 30.000
Fe 25.000 32.500 32.500
Cu 25.000 32.500 35.000
Fe 25.000 32.500 37.500
Cu 25.000 32.500 40.000
Fe 25.000 32.500 42.500
Cu 25.000 32.500 45.000
Fe 25.000 32.500 47.500
Cu 25.000 32.500 50.000
Fe 25.000 32.500 52.500
Cu 25.000 32.500 55.000
Fe 25.000 35.000 0.000
Cu 25.000 35.000 2.500
Fe 25.000 35.000 5.000
Cu 25.000 35.000 7.500
Fe 25.000 35.000 10.000
Cu 25.000 35.000 12.500
Fe 25.000 35.000 15.000
Cu 25.000 35.000 17.500
Fe 25.000 35.000 20.000
Cu 25.000 35.000 22.500
Fe 25.000 35.000 25.000
Cu 25.000 35.000 27.500
Fe 25.000 35.000 30.000
Cu 25.000 35.000 32.500
Fe 25.000 35.000 35.000
Cu 25.000 35.000 37.500
Fe 25.000 35.000 40.000
Cu 25.000 35.000 42.500
Fe 25.000 35.000 45.000
Cu 25.000 35.000 47.500
Fe 25.000 35.000 50.000
Cu 25.000 35.000 52.500
Fe 25.000 35.000 55.000
Cu 25.000 37.500 0.000
Fe 25.000 37.500 2.500
Cu 25.000 37.500 5.000
Fe 25.000 37.500 7.500
Cu 25.000 37.500 10.000
Fe 25.000 37.500 12.500
Cu 25.000 37.500 15.000
Fe 25.000 37.500 17.500
Cu 25.000 37.500 20.000
Fe 25.000 37.500 22.500
Cu 25.000 37.500 25.000
Fe 25.000 37.500 27.500
Cu 25.000 37.500 30.000
Fe 25.000 37.500 32.500
Cu 25.000 37.500 35.000
Fe 25.000 37.500 37.500
Cu 25.000 37.500 40.000
Fe 25.000 37.500 42.500
Cu 25.000 37.500 45.000
Fe 25.000 37.500 47.500
Cu 25.000 37.500 50.000
Fe 25.000 37.500 52.500
Cu 25.000 37.500 55.000
Fe 25.000 40.000 0.000
Cu 25.000 40.000 2.500
Fe 25.000 40.000 5.000
Cu 25.000 40.000 7.500
Fe 25.000 40.000 10.000
Cu 25.000 40.000 12.500
Fe 25.000 40.000 15.000
Cu 25.000 40.000 17.500
Fe 25.000 40.000 20.000
Cu 25.000 40.000 22.500
Fe 25.000 40.000 25.000
Cu 25.000 40.000 27.500
Fe 25.000 40.000 30.000
Cu 25.000 40.000 32.500
Fe 25.000 40.000 35.000
Cu 25.000 40.000 37.500
Fe 25.000 40.000 40.000
Cu 25.000 40.000 42.500
Fe 25.000 40.000 45.000
Cu 25.000 40.000 47.500
Fe 25.000 40.000 50.000
Cu 25.000 40.000 52.500
Fe 25.000 40.000 55.000
Cu 25.000 42.500 0.000
Fe 25.000 42.500 2.500
Cu 25.000 42.500 5.000
Fe 25.000 42.500 7.500
Cu 25.000 42.500 10.000
Fe 25.000 42.500 12.500
Cu 25.000 42.500 15.000
Fe 25.000 42.500 17.500
Cu 25.000 42.500 20.000
Fe 25.000 42.500 22.500
Cu 25.000 42.500 25.000
Fe 25.000 42.500 27.500
Cu 25.000 42.500 30.000
Fe 25.000 42.500 32.500
Cu 25.000 42.500 35.000
Fe 25.000 42.500 37.500
Cu 25.000 42.500 40.000
Fe 25.000 42.500 42.500
Cu 25.000 42.500 45.000
Fe 25.000 42.500 47.500
Cu 25.000 42.500 50.000
Fe 25.000 42.500 52.500
Cu 25.000 42.500 55.000
Fe 25.000 45.000 0.000
Cu 25.000 45.000 2.500
Fe 25.000 45.000 5.000
Cu 25.000 45.000 7.500
Fe 25.000 45.000 10.000
Cu 25.000 45.000 12.500
Fe 25.000 45.000 15.000
Cu 25.000 45.000 17.500
Fe 25.000 45.000 20.000
Cu 25.000 45.000 22.500
Fe 25.000 45.000 25.000
Cu 25.000 45.000 27.500
Fe 25.000 45.000 30.000
Cu 25.000 45.000 32.500
Fe 25.000 45.000 35.000
Cu 25.000 45.000 37.500
Fe 25.000 45.000 40.000
Cu 25.000 45.000 42.500
Fe 25.000 45.000 45.000
Cu 25.000 45.000 47.500
Fe 25.000 45.000 50.000
Cu 25.000 45.000 52.500
Fe 25.000 45.000 55.000
Cu 25.000 47.500 0.000
Fe 25.000 47.500 2.500
Cu 25.000 47.500 5.000
Fe 25.000 47.500 7.500
Cu 25.000 47.500 10.000
Fe 25.000 47.500 12.500
Cu 25.000 47.500 15.000
Fe 25.000 47.500 17.500
Cu 25.000 47.500 20.000
Fe 25.000 47.500 22.500
Cu 25.000 47.500 25.000
Fe 25.000 47.500 27.500
Cu 25.000 47.500 30.000
Fe 25.000 47.500 32.500
Cu 25.000 47.500 35.000
Fe 25.000 47.500 37.500
Cu 25.000 47.500 40.000
Fe 25.000 47.500 42.500
Cu 25.000 47.500 45.000
Fe 25.000 47.500 47.500
Cu 25.000 47.500 50.000
Fe 25.000 47.500 52.500
Cu 25.000 47.500 55.000
Fe 25.000 50.000 0.000
Cu 25.000 50.000 2.500
Fe 25.000 50.000 5.000
Cu 25.000 50.000 7.500
Fe 25.000 50.000 10.000
Cu 25.000 50.000 12.500
Fe 25.000 50.000 15.000
Cu 25.000 50.000 17.500
Fe 25.000 50.000 20.000
Cu 25.000 50.000 22.500
Fe 25.000 50.000 25.000
Cu 25.000 50.000 27.500
Fe 25.000 50.000 30.000
Cu 25.000 50.000 32.500
Fe 25.000 50.000 35.000
Cu 25.000 50.000 37.500
Fe 25.000 50.000 40.000
Cu 25.000 50.000 42.500
Fe 25.000 50.000 45.000
Cu 25.000 50.000 47.500
Fe 25.000 50.000 50.000
Cu 25.000 50.000 52.500
Fe 25.000 50.000 55.000
Cu 25.000 52.500 0.000
Fe 25.000 52.500 2.500
Cu 25.000 52.500 5.000
Fe 25.000 52.500 7.500
Cu 25.000 52.500 10.000
Fe 25.000 52.500 12.500
Cu 25.000 52.500 15.000
Fe 25.000 52.500 17.500
Cu 25.000 52.500 20.000
Fe 25.000 52.500 22.500
Cu 25.000 52.500 25.000
Fe 25.000 52.500 27.500
Cu 25.000 52.500 30.000
Fe 25.000 52.500 32.500
Cu 25.000 52.500 35.000
Fe 25.000 52.500 37.500
Cu 25.000 52.500 40.000
Fe 25.000 52.500 42.500
Cu 25.000 52.500 45.000
Fe 25.000 52.500 47.500
Cu 25.000 52.500 50.000
Fe 25.000 52.500 52.500
Cu 25.000 52.500 55.000
Fe 25.000 55.000 0.000
Cu 25.000 55.000 2.500
Fe 25.000 55.000 5.000
Cu 25.000 55.000 7.500
Fe 25.000 55.000 10.000
Cu 25.000 55.000 12.500
Fe 25.000 55.000 15.000
Cu 25.000 55.000 17.500
Fe 25.000 55.000 20.000
Cu 25.000 55.000 22.500
Fe 25.000 55.000 25.000
Cu 25.000 55.000 27.500
Fe 25.000 55.000 30.000
Cu 25.000 55.000 32.500
Fe 25.000 55.000 35.000
Cu 25.000 55.000 37.500
Fe 25.000 55.000 40.000
Cu 25.000 55.000 42.500
Fe 25.000 55.000 45.000
Cu 25.000 55.000 47.500
Fe 25.000 55.000 50.000
Cu 25.000 55.000 52.500
Fe 25.000 55.000 55.000
Cu 27.500 0.000 0.000
Fe 27.500 0.000 2.500
Cu 27.500 0.000 5.000
Fe 27.500 0.000 7.500
Cu 27.500 0.000 10.000
Fe 27.500 0.000 12.500
Cu 27.500 0.000 15.000
Fe 27.500 0.000 17.500
Cu 27.500 0.000 20.000
Fe 27.500 0.000 22.500
Cu 27.500 0.000 25.000
Fe 27.500 0.000 27.500
Cu 27.500 0.000 30.000
Fe 27.500 0.000 32.500
Cu 27.500 0.000 35.000
Fe 27.500 0.000 37.500
Cu 27.500 0.000 40.000
Fe 27.500 0.000 42.500
Cu 27.500 0.000 45.000
Fe 27.500 0.000 47.500
Cu 27.500 0.000 50.000
Fe 27.500 0.000 52.500
Cu 27.500 0.000 55.000
Fe 27.500 2.500 0.000
Cu 27.500 2.500 2.500
Fe 27.500 2.500 5.000
Cu 27.500 2.500 7.500
Fe 27.500 2.500 10.000
Cu 27.500 2.500 12.500
Fe 27.500 2.500 15.000
Cu 27.500 2.500 17.500
Fe 27.500 2.500 20.000
Cu 27.500 2.500 22.500
Fe 27.500 2.500 25.000
Cu 27.500 2.500 27.500
Fe 27.500 2.500 30.000
Cu 27.500 2.500 32.500
Fe 27.500 2.500 35.000
Cu 27.500 2.500 37.500
Fe 27.500 2.500 40.000
Cu 27.500 2.500 42.500
Fe 27.500 2.500 45.000
Cu 27.500 2.500 47.500
Fe 27.500 2.500 50.000
Cu 27.500 2.500 52.500
Fe 27.500 2.500 55.000
Cu 27.500 5.000 0.000
Fe 27.500 5.000 2.500
Cu 27.500 5.000 5.000
Fe 27.500 5.000 7.500
Cu 27.500 5.000 10.000
Fe 27.500 5.000 12.500
Cu 27.500 5.000 15.000
Fe 27.500 5.000 17.500
Cu 27.500 5.000 20.000
Fe 27.500 5.000 22.500
Cu 27.500 5.000 25.000
Fe 27.500 5.000 27.500
Cu 27.500 5.000 30.000
Fe 27.500 5.000 32.500
Cu 27.500 5.000 35.000
Fe 27.500 5.000 37.500
Cu 27.500 5.000 40.000
Fe 27.500 5.000 42.500
Cu 27.500 5.000 45.000
Fe 27.500 5.000 47.500
Cu 27.500 5.000 50.000
Fe 27.500 5.000 52.500
Cu 27.500 5.000 55.000
Fe 27.500 7.500 0.000
Cu 27.500 7.500 2.500
Fe 27.500 7.500 5.000
Cu 27.500 7.500 7.500
Fe 27.500 7.500 10.000
Cu 27.500 7.500 12.500
Fe 27.500 7.500 15.000
Cu 27.500 7.500 17.500
Fe 27.500 7.500 20.000
Cu 27.500 7.500 22.500
Fe 27.500 7.500 25.000
Cu 27.500 7.500 27.500
Fe 27.500 7.500 30.000
Cu 27.500 7.500 32.500
Fe 27.500 7.500 35.000
Cu 27.500 7.500 37.500
Fe 27.500 7.500 40.000
Cu 27.500 7.500 42.500
Fe 27.500 7.500 45.000
Cu 27.500 7.500 47.500
Fe 27.500 7.500 50.000
Cu 27.500 7.500 52.500
Fe 27.500 7.500 55.000
Cu 27.500 10.000 0.000
Fe 27.500 10.000 2.500
Cu 27.500 10.000 5.000
Fe 27.500 10.000 7.500
Cu 27.500 10.000 10.000
Fe 27.500 10.000 12.500
Cu 27.500 10.000 15.000
Fe 27.500 10.000 17.500
Cu 27.500 10.000 20.000
Fe 27.500 10.000 22.500
Cu 27.500 10.000 25.000
Fe 27.500 10.000 27.500
Cu 27.500 10.000 30.000
Fe 27.500 10.000 32.500
Cu 27.500 10.000 35.000
Fe 27.500 10.000 37.500
Cu 27.500 10.000 40.000
Fe 27.500 10.000 42.500
Cu 27.500 10.000 45.000
Fe 27.500 10.000 47.500
Cu 27.500 10.000 50.000
Fe 27.500 10.000 52.500
Cu 27.500 10.000 55.000
Fe 27.500 12.500 0.000
Cu 27.500 12.500 2.500
Fe 27.500 12.500 5.000
Cu 27.500 12.500 7.500
Fe 27.500 12.500 10.000
Cu 27.500 12.500 12.500
Fe 27.500 12.500 15.000
Cu 27.500 12.500 17.500
Fe 27.500 12.500 20.000
Cu 27.500 12.500 22.500
Fe 27.500 12.500 25.000
Cu 27.500 12.500 27.500
Fe 27.500 12.500 30.000
Cu 27.500 12.500 32.500
Fe 27.500 12.500 35.000
Cu 27.500 12.500 37.500
Fe 27.500 12.500 40.000
Cu 27.500 12.500 42.500
Fe 27.500 12.500 45.000
Cu 27.500 12.500 47.500
Fe 27.500 12.500 50.000
Cu 27.500 12.500 52.500
Fe 27.500 12.500 55.000
Cu 27.500 15.000 0.000
Fe 27.500 15.000 2.500
Cu 27.500 15.000 5.000
Fe 27.500 15.000 7.500
Cu 27.500 15.000 10.000
Fe 27.500 15.000 12.500
Cu 27.500 15.000 15.000
Fe 27.500 15.000 17.500
Cu 27.500 15.000 20.000
Fe 27.500 15.000 22.500
Cu 27.500 15.000 25.000
Fe 27.500 15.000 27.500
Cu 27.500 15.000 30.000
Fe 27.500 15.000 32.500
Cu 27.500 15.000 35.000
Fe 27.500 15.000 37.500
Cu 27.500 15.000 40.000
Fe 27.500 15.000 42.500
Cu 27.500 15.000 45.000
Fe 27.500 15.000 47.500
Cu 27.500 15.000 50.000
Fe 27.500 15.000 52.500
Cu 27.500 15.000 55.000
Fe 27.500 17.500 0.000
Cu 27.500 17.500 2.500
Fe 27.500 17.500 5.000
Cu 27.500 17.500 7.500
Fe 27.500 17.500 10.000
Cu 27.500 17.500 12.500
Fe 27.500 17.500 15.000
Cu 27.500 17.500 17.500
Fe 27.500 17.500 20.000
Cu 27.500 17.500 22.500
Fe 27.500 17.500 25.000
Cu 27.500 17.500 27.500
Fe 27.500 17.500 30.000
Cu 27.500 17.500 32.500
Fe 27.500 17.500 35.000
Cu 27.500 17.500 37.500
Fe 27.500 17.500 40.000
Cu 27.500 17.500 42.500
Fe 27.500 17.500 45.000
Cu 27.500 17.500 47.500
Fe 27.500 17.500 50.000
Cu 27.500 17.500 52.500
Fe 27.500 17.500 55.000
Cu 27.500 20.000 0.000
Fe 27.500 20.000 2.500
Cu 27.500 20.000 5.000
Fe 27.500 20.000 7.500
Cu 27.500 20.000 10.000
Fe 27.500 20.000 12.500
Cu 27.500 20.000 15.000
Fe 27.500 20.000 17.500
Cu 27.500 20.000 20.000
Fe 27.500 20.000 22.500
Cu 27.500 20.000 25.000
Fe 27.500 20.000 27.500
Cu 27.500 20.000 30.000
Fe 27.500 20.000 32.500
Cu 27.500 20.000 35.000
Fe 27.500 20.000 37.500
Cu 27.500 20.000 40.000
Fe 27.500 20.000 42.500
Cu 27.500 20.000 45.000
Fe 27.500 20.000 47.500
Cu 27.500 20.000 50.000
Fe 27.500 20.000 52.500
Cu 27.500 20.000 55.000
Fe 27.500 22.500 0.000
Cu 27.500 22.500 2.500
Fe 27.500 22.500 5.000
Cu 27.500 22.500 7.500
Fe 27.500 22.500 10.000
Cu 27.500 22.500 12.500
Fe 27.500 22.500 15.000
Cu 27.500 22.500 17.500
Fe 27.500 22.500 20.000
Cu 27.500 22.500 22.500
Fe 27.500 22.500 25.000
Cu 27.500 22.500 27.500
Fe 27.500 22.500 30.000
Cu 27.500 22.500 32.500
Fe 27.500 22.500 35.000
Cu 27.500 22.500 37.500
Fe 27.500 22.500 40.000
Cu 27.500 22.500 42.500
Fe 27.500 22.500 45.000
Cu 27.500 22.500 47.500
Fe 27.500 22.500 50.000
Cu 27.500 22.500 52.500
Fe 27.500 22.500 55.000
Cu 27.500 25.000 0.000
Fe 27.500 25.000 2.500
Cu 27.500 25.000 5.000
Fe 27.500 25.000 7.500
Cu 27.500 25.000 10.000
Fe 27.500 25.000 12.500
Cu 27.500 25.000 15.000
Fe 27.500 25.000 17.500
Cu 27.500 25.000 20.000
Fe 27.500 25.000 22.500
Cu 27.500 25.000 25.000
Fe 27.500 25.000 27.500
Cu 27.500 25.000 30.000
Fe 27.500 25.000 32.500
Cu 27.500 25.000 35.000
Fe 27.500 25.000 37.500
Cu 27.500 25.000 40.000
Fe 27.500 25.000 42.500
Cu 27.500 25.000 45.000
Fe 27.500 25.000 47.500
Cu 27.500 25.000 50.000
Fe 27.500 25.000 52.500
Cu 27.500 25.000 55.000
Fe 27.500 27.500 0.000
Cu 27.500 27.500 2.500
Fe 27.500 27.500 5.000
Cu 27.500 27.500 7.500
Fe 27.500 27.500 10.000
Cu 27.500 27.500 12.500
Fe 27.500 27.500 15.000
Cu 27.500 27.500 17.500
Fe 27.500 27.500 20.000
Cu 27.500 27.500 22.500
Fe 27.500 27.500 25.000
Cu 27.500 27.500 27.500
Fe 27.500 27.500 30.000
Cu 27.500 27.500 32.500
Fe 27.500 27.500 35.000
Cu 27.500 27.500 37.500
Fe 27.500 27.500 40.000
Cu 27.500 27.500 42.500
Fe 27.500 27.500 45.000
Cu 27.500 27.500 47.500
Fe 27.500 27.500 50.000
Cu 27.500 27.500 52.500
Fe 27.500 27.500 55.000
Cu 27.500 30.000 0.000
Fe 27.500 30.000 2.500
Cu 27.500 30.000 5.000
Fe 27.500 30.000 7.500
Cu 27.500 30.000 10.000
Fe 27.500 30.000 12.500
Cu 27.500 30.000 15.000
Fe 27.500 30.000 17.500
Cu 27.500 30.000 20.000
Fe 27.500 30.000 22.500
Cu 27.500 30.000 25.000
Fe 27.500 30.000 27.500
Cu 27.500 30.000 30.000
Fe 27.500 30.000 32.500
Cu 27.500 30.000 35.000
Fe 27.500 30.000 37.500
Cu 27.500 30.000 40.000
Fe 27.500 30.000 42.500
Cu 27.500 30.000 45.000
Fe 27.500 30.000 47.500
Cu 27.500 30.000 50.000
Fe 27.500 30.000 52.500
Cu 27.500 30.000 55.000
Fe 27.500 32.500 0.000
Cu 27.500 32.500 2.500
Fe 27.500 32.500 5.000
Cu 27.500 32.500 7.500
Fe 27.500 32.500 10.000
Cu 27.500 32.500 12.500
Fe 27.500 32.500 15.000
Cu 27.500 32.500 17.500
Fe 27.500 32.500 20.000
Cu 27.500 32.500 22.500
Fe 27.500 32.500 25.000
Cu 27.500 32.500 27.500
Fe 27.500 32.500 30.000
Cu 27.500 32.500 32.500
Fe 27.500 32.500 35.000
Cu 27.500 32.500 37.500
Fe 27.500 32.500 40.000
Cu 27.500 32.500 42.500
Fe 27.500 32.500 45.000
Cu 27.500 32.500 47.500
Fe 27.500 32.500 50.000
Cu 27.500 32.500 52.500
Fe 27.500 32.500 55.000
Cu 27.500 35.000 0.000
Fe 27.500 35.000 2.500
Cu 27.500 35.000 5.000
Fe 27.500 35.000 7.500
Cu 27.500 35.000 10.000
Fe 27.500 35.000 12.500
Cu 27.500 35.000 15.000
Fe 27.500 35.000 17.500
Cu 27.500 35.000 20.000
Fe 27.500 35.000 22.500
Cu 27.500 35.000 25.000
Fe 27.500 35.000 27.500
Cu 27.500 35.000 30.000
Fe 27.500 35.000 32.500
Cu 27.500 35.000 35.000
Fe 27.500 35.000 37.500
Cu 27.500 35.000 40.000
Fe 27.500 35.000 42.500
Cu 27.500 35.000 45.000
Fe 27.500 35.000 47.500
Cu 27.500 35.000 50.000
Fe 27.500 35.000 52.500
Cu 27.500 35.000 55.000
Fe 27.500 37.500 0.000
Cu 27.500 37.500 2.500
Fe 27.500 37.500 5.000
Cu 27.500 37.500 7.500
Fe 27.500 37.500 10.000
Cu 27.500 37.500 12.500
Fe 27.500 37.500 15.000
Cu 27.500 37.500 17.500
Fe 27.500 37.500 20.000
Cu 27.500 37.500 22.500
Fe 27.500 37.500 25.000
Cu 27.500 37.500 27.500
Fe 27.500 37.500 30.000
Cu 27.500 37.500 32.500
Fe 27.500 37.500 35.000
Cu 27.500 37.500 37.500
Fe 27.500 37.500 40.000
Cu 27.500 37.500 42.500
Fe 27.500 37.500 45.000
Cu 27.500 37.500 47.500
Fe 27.500 37.500 50.000
Cu 27.500 37.500 52.500
Fe 27.500 37.500 55.000
Cu 27.500 40.000 0.000
Fe 27.500 40.000 2.500
Cu 27.500 40.000 5.000
Fe 27.500 40.000 7.500
Cu 27.500 40.000 10.000
Fe 27.500 40.000 12.500
Cu 27.500 40.000 15.000
Fe 27.500 40.000 17.500
Cu 27.500 40.000 20.000
Fe 27.500 40.000 22.500
Cu 27.500 40.000 25.000
Fe 27.500 40.000 27.500
Cu 27.500 40.000 30.000
Fe 27.500 40.000 32.500
Cu 27.500 40.000 35.000
Fe 27.500 40.000 37.500
Cu 27.500 40.000 40.000
Fe 27.500 40.000 42.500
Cu 27.500 40.000 45.000
Fe 27.500 40.000 47.500
Cu 27.500 40.000 50.000
Fe 27.500 40.000 52.500
Cu 27.500 40.000 55.000
Fe 27.500 42.500 0.000
Cu 27.500 42.500 2.500
Fe 27.500 42.500 5.000
Cu 27.500 42.500 7.500
Fe 27.500 42.500 10.000
Cu 27.500 42.500 12.500
Fe 27.500 42.500 15.000
Cu 27.500 42.500 17.500
Fe 27.500 42.500 20.000
Cu 27.500 42.500 22.500
Fe 27.500 42.500 25.000
Cu 27.500 42.500 27.500
Fe 27.500 42.500 30.000
Cu 27.500 42.500 32.500
Fe 27.500 42.500 35.000
Cu 27.500 42.500 37.500
Fe 27.500 42.500 40.000
Cu 27.500 42.500 42.500
Fe 27.500 42.500 45.000
Cu 27.500 42.500 47.500
Fe 27.500 42.500 50.000
Cu 27.500 42.500 52.500
Fe 27.500 42.500 55.000
Cu 27.500 45.000 0.000
Fe 27.500 45.000 2.500
Cu 27.500 45.000 5.000
Fe 27.500 45.000 7.500
Cu 27.500 45.000 10.000
Fe 27.500 45.000 12.500
Cu 27.500 45.000 15.000
Fe 27.500 45.000 17.500
Cu 27.500 45.000 20.000
Fe 27.500 45.000 22.500
Cu 27.500 45.000 25.000
Fe 27.500 45.000 27.500
Cu 27.500 45.000 30.000
Fe 27.500 45.000 32.500
Cu 27.500 45.000 35.000
Fe 27.500 45.000 37.500
Cu 27.500 45.000 40.000
Fe 27.500 45.000 42.500
Cu 27.500 45.000 45.000
Fe 27.500 45.000 47.500
Cu 27.500 45.000 50.000
Fe 27.500 45.000 52.500
Cu 27.500 45.000 55.000
Fe 27.500 47.500 0.000
Cu 27.500 47.500 2.500
Fe 27.500 47.500 5.000
Cu 27.500 47.500 7.500
Fe 27.500 47.500 10.000
Cu 27.500 47.500 12.500
Fe 27.500 47.500 15.000
Cu 27.500 47.500 17.500
Fe 27.500 47.500 20.000
Cu 27.500 47.500 22.500
Fe 27.500 47.500 25.000
Cu 27.500 47.500 27.500
Fe 27.500 47.500 30.000
Cu 27.500 47.500 32.500
Fe 27.500 47.500 35.000
Cu 27.500 47.500 37.500
Fe 27.500 47.500 40.000
Cu 27.500 47.500 42.500
Fe 27.500 47.500 45.000
Cu 27.500 47.500 47.500
Fe 27.500 47.500 50.000
Cu 27.500 47.500 52.500
Fe 27.500 47.500 55.000
Cu 27.500 50.000 0.000
Fe 27.500 50.000 2.500
Cu 27.500 50.000 5.000
Fe 27.500 50.000 7.500
Cu 27.500 50.000 10.000
Fe 27.500 50.000 12.500
Cu 27.500 50.000 15.000
Fe 27.500 50.000 17.500
Cu 27.500 50.000 20.000
Fe 27.500 50.000 22.500
Cu 27.500 50.000 25.000
Fe 27.500 50.000 27.500
Cu 27.500 50.000 30.000
Fe 27.500 50.000 32.500
Cu 27.500 50.000 35.000
Fe 27.500 50.000 37.500
Cu 27.500 50.000 40.000
Fe 27.500 50.000 42.500
Cu 27.500 50.000 45.000
Fe 27.500 50.000 47.500
Cu 27.500 50.000 50.000
Fe 27.500 50.000 52.500
Cu 27.500 50.000 55.000
Fe 27.500 52.500 0.000
Cu 27.500 52.500 2.500
Fe 27.500 52.500 5.000
Cu 27.500 52.500 7.500
Fe 27.500 52.500 10.000
Cu 27.500 52.500 12.500
Fe 27.500 52.500 15.000
Cu 27.500 52.500 17.500
Fe 27.500 52.500 20.000
Cu 27.500 52.500 22.500
Fe 27.500 52.500 25.000
Cu 27.500 52.500 27.500
Fe 27.500 52.500 30.000
Cu 27.500 52.500 32.500
Fe 27.500 52.500 35.000
Cu 27.500 52.500 37.500
Fe 27.500 52.500 40.000
Cu 27.500 52.500 42.500
Fe 27.500 52.500 45.000
Cu 27.500 52.500 47.500
Fe 27.500 52.500 50.000
Cu 27.500 52.500 52.500
Fe 27.500 52.500 55.000
Cu 27.500 55.000 0.000
Fe 27.500 55.000 2.500
Cu 27.500 55.000 5.000
Fe 27.500 55.000 7.500
Cu 27.500 55.000 10.000
Fe 27.500 55.000 12.500
Cu 27.500 55.000 15.000
Fe 27.500 55.000 17.500
Cu 27.500 55.000 20.000
Fe 27.500 55.000 22.500
Cu 27.500 55.000 25.000
Fe 27.500 55.000 27.500
Cu 27.500 55.000 30.000
Fe 27.500 55.000 32.500
Cu 27.500 55.000 35.000
Fe 27.500 55.000 37.500
Cu 27.500 55.000 40.000
Fe 27.500 55.000 42.500
Cu 27.500 55.000 45.000
Fe 27.500 55.000 47.500
Cu 27.500 55.000 50.000
Fe 27.500 55.000 52.500
Cu 27.500 55.000 55.000
Fe 30.000 0.000 0.000
Cu 30.000 0.000 2.500
Fe 30.000 0.000 5.000
Cu 30.000 0.000 7.500
Fe 30.000 0.000 10.000
Cu 30.000 0.000 12.500
Fe 30.000 0.000 15.000
Cu 30.000 0.000 17.500
Fe 30.000 0.000 20.000
Cu 30.000 0.000 22.500
Fe 30.000 0.000 25.000
Cu 30.000 0.000 27.500
Fe 30.000 0.000 30.000
Cu 30.000 0.000 32.500
Fe 30.000 0.000 35.000
Cu 30.000 0.000 37.500
Fe 30.000 0.000 40.000
Cu 30.000 0.000 42.500
Fe 30.000 0.000 45.000
Cu 30.000 0.000 47.500
Fe 30.000 0.000 50.000
Cu 30.000 0.000 52.500
Fe 30.000 0.000 55.000
Cu 30.000 2.500 0.000
Fe 30.000 2.500 2.500
Cu 30.000 2.500 5.000
Fe 30.000 2.500 7.500
Cu 30.000 2.500 10.000
Fe 30.000 2.500 12.500
Cu 30.000 2.500 15.000
Fe 30.000 2.500 17.500
Cu 30.000 2.500 20.000
Fe 30.000 2.500 22.500
Cu 30.000 2.500 25.000
Fe 30.000 2.500 27.500
Cu 30.000 2.500 30.000
Fe 30.000 2.500 32.500
Cu 30.000 2.500 35.000
Fe 30.000 2.500 37.500
Cu 30.000 2.500 40.000
Fe 30.000 2.500 42.500
Cu 30.000 2.500 45.000
Fe 30.000 2.500 47.500
Cu 30.000 2.500 50.000
Fe 30.000 2.500 52.500
Cu 30.000 2.500 55.000
Fe 30.000 5.000 0.000
Cu 30.000 5.000 2.500
Fe 30.000 5.000 5.000
Cu 30.000 5.000 7.500
Fe 30.000 5.000 10.000
Cu 30.000 5.000 12.500
Fe 30.000 5.000 15.000
Cu 30.000 5.000 17.500
Fe 30.000 5.000 20.000
Cu 30.000 5.000 22.500
Fe 30.000 5.000 25.000
Cu 30.000 5.000 27.500
Fe 30.000 5.000 30.000
Cu 30.000 5.000 32.500
Fe 30.000 5.000 35.000
Cu 30.000 5.000 37.500
Fe 30.000 5.000 40.000
Cu 30.000 5.000 42.500
Fe 30.000 5.000 45.000
Cu 30.000 5.000 47.500
Fe 30.000 5.000 50.000
Cu 30.000 5.000 52.500
Fe 30.000 5.000 55.000
Cu 30.000 7.500 0.000
Fe 30.000 7.500 2.500
Cu 30.000 7.500 5.000
Fe 30.000 7.500 7.500
Cu 30.000 7.500 10.000
Fe 30.000 7.500 12.500
Cu 30.000 7.500 15.000
Fe 30.000 7.500 17.500
Cu 30.000 7.500 20.000
Fe 30.000 7.500 22.500
Cu 30.000 7.500 25.000
Fe 30.000 7.500 27.500
Cu 30.000 7.500 30.000
Fe 30.000 7.500 32.500
Cu 30.000 7.500 35.000
Fe 30.000 7.500 37.500
Cu 30.000 7.500 40.000
Fe 30.000 7.500 42.500
Cu 30.000 7.500 45.000
Fe 30.000 7.500 47.500
Cu 30.000 7.500 50.000
Fe 30.000 7.500 52.500
Cu 30.000 7.500 55.000
Fe 30.000 10.000 0.000
Cu 30.000 10.000 2.500
Fe 30.000 10.000 5.000
Cu 30.000 10.000 7.500
Fe 30.000 10.000 10.000
Cu 30.000 10.000 12.500
Fe 30.000 10.000 15.000
Cu 30.000 10.000 17.500
Fe 30.000 10.000 20.000
Cu 30.000 10.000 22.500
Fe 30.000 10.000 25.000
Cu 30.000 10.000 27.500
Fe 30.000 10.000 30.000
Cu 30.000 10.000 32.500
Fe 30.000 10.000 35.000
Cu 30.000 10.000 37.500
Fe 30.000 10.000 40.000
Cu 30.000 10.000 42.500
Fe 30.000 10.000 45.000
Cu 30.000 10.000 47.500
Fe 30.000 10.000 50.000
Cu 30.000 10.000 52.500
Fe 30.000 10.000 55.000
Cu 30.000 12.500 0.000
Fe 30.000 12.500 2.500
Cu 30.000 12.500 5.000
Fe 30.000 12.500 7.500
Cu 30.000 12.500 10.000
Fe 30.000 12.500 12.500
Cu 30.000 12.500 15.000
Fe 30.000 12.500 17.500
Cu 30.000 12.500 20.000
Fe 30.000 12.500 22.500
Cu 30.000 12.500 25.000
Fe 30.000 12.500 27.500
Cu 30.000 12.500 30.000
Fe 30.000 12.500 32.500
Cu 30.000 12.500 35.000
Fe 30.000 12.500 37.500
Cu 30.000 12.500 40.000
Fe 30.000 12.500 42.500
Cu 30.000 12.500 45.000
Fe 30.000 12.500 47.500
Cu 30.000 12.500 50.000
Fe 30.000 12.500 52.500
Cu 30.000 12.500 55.000
Fe 30.000 15.000 0.000
Cu 30.000 15.000 2.500
Fe 30.000 15.000 5.000
Cu 30.000 15.000 7.500
Fe 30.000 15.000 10.000
Cu 30.000 15.000 12.500
Fe 30.000 15.000 15.000
Cu 30.000 15.000 17.500
Fe 30.000 15.000 20.000
Cu 30.000 15.000 22.500
Fe 30.000 15.000 25.000
Cu 30.000 15.000 27.500
Fe 30.000 15.000 30.000
Cu 30.000 15.000 32.500
Fe 30.000 15.000 35.000
Cu 30.000 15.000 37.500
Fe 30.000 15.000 40.000
Cu 30.000 15.000 42.500
Fe 30.000 15.000 45.000
Cu 30.000 15.000 47.500
Fe 30.000 15.000 50.000
Cu 30.000 15.000 52.500
Fe 30.000 15.000 55.000
Cu 30.000 17.500 0.000
Fe 30.000 17.500 2.500
Cu 30.000 17.500 5.000
Fe 30.000 17.500 7.500
Cu 30.000 17.500 10.000
Fe 30.000 17.500 12.500
Cu 30.000 17.500 15.000
Fe 30.000 17.500 17.500
Cu 30.000 17.500 20.000
Fe 30.000 17.500 22.500
Cu 30.000 17.500 25.000
Fe 30.000 17.500 27.500
Cu 30.000 17.500 30.000
Fe 30.000 17.500 32.500
Cu 30.000 17.500 35.000
Fe 30.000 17.500 37.500
Cu 30.000 17.500 40.000
Fe 30.000 17.500 42.500
Cu 30.000 17.500 45.000
Fe 30.000 17.500 47.500
Cu 30.000 17.500 50.000
Fe 30.000 17.500 52.500
Cu 30.000 17.500 55.000
Fe 30.000 20.000 0.000
Cu 30.000 20.000 2.500
Fe 30.000 20.000 5.000
Cu 30.000 20.000 7.500
Fe 30.000 20.000 10.000
Cu 30.000 20.000 12.500
Fe 30.000 20.000 15.000
Cu 30.000 20.000 17.500
Fe 30.000 20.000 20.000
Cu 30.000 20.000 22.500
Fe 30.000 20.000 25.000
Cu 30.000 20.000 27.500
Fe 30.000 20.000 30.000
Cu 30.000 20.000 32.500
Fe 30.000 20.000 35.000
Cu 30.000 20.000 37.500
Fe 30.000 20.000 40.000
Cu 30.000 20.000 42.500
Fe 30.000 20.000 45.000
Cu 30.000 20.000 47.500
Fe 30.000 20.000 50.000
Cu 30.000 20.000 52.500
Fe 30.000 20.000 55.000
Cu 30.000 22.500 0.000
Fe 30.000 22.500 2.500
Cu 30.000 22.500 5.000
Fe 30.000 22.500 7.500
Cu 30.000 22.500 10.000
Fe 30.000 22.500 12.500
Cu 30.000 22.500 15.000
Fe 30.000 22.500 17.500
Cu 30.000 22.500 20.000
Fe 30.000 22.500 22.500
Cu 30.000 22.500 25.000
Fe 30.000 22.500 27.500
Cu 30.000 22.500 30.000
Fe 30.000 22.500 32.500
Cu 30.000 22.500 35.000
Fe 30.000 22.500 37.500
Cu 30.000 22.500 40.000
Fe 30.000 22.500 42.500
Cu 30.000 22.500 45.000
Fe 30.000 22.500 47.500
Cu 30.000 22.500 50.000
Fe 30.000 22.500 52.500
Cu 30.000 22.500 55.000
Fe 30.000 25.000 0.000
Cu 30.000 25.000 2.500
Fe 30.000 25.000 5.000
Cu 30.000 25.000 7.500
Fe 30.000 25.000 10.000
Cu 30.000 25.000 12.500
Fe 30.000 25.000 15.000
Cu 30.000 25.000 17.500
Fe 30.000 25.000 20.000
Cu 30.000 25.000 22.500
Fe 30.000 25.000 25.000
Cu 30.000 25.000 27.500
Fe 30.000 25.000 30.000
Cu 30.000 25.000 32.500
Fe 30.000 25.000 35.000
Cu 30.000 25.000 37.500
Fe 30.000 25.000 40.000
Cu 30.000 25.000 42.500
Fe 30.000 25.000 45.000
Cu 30.000 25.000 47.500
Fe 30.000 25.000 50.000
Cu 30.000 25.000 52.500
Fe 30.000 25.000 55.000
Cu 30.000 27.500 0.000
Fe 30.000 27.500 2.500
Cu 30.000 27.500 5.000
Fe 30.000 27.500 7.500
Cu 30.000 27.500 10.000
Fe 30.000 27.500 12.500
Cu 30.000 27.500 15.000
Fe 30.000 27.500 17.500
Cu 30.000 27.500 20.000
Fe 30.000 27.500 22.500
Cu 30.000 27.500 25.000
Fe 30.000 27.500 27.500
Cu 30.000 27.500 30.000
Fe 30.000 27.500 32.500
Cu 30.000 27.500 35.000
Fe 30.000 27.500 37.500
Cu 30.000 27.500 40.000
Fe 30.000 27.500 42.500
Cu 30.000 27.500 45.000
Fe 30.000 27.500 47.500
Cu 30.000 27.500 50.000
Fe 30.000 27.500 52.500
Cu 30.000 27.500 55.000
Fe 30.000 30.000 0.000
Cu 30.000 30.000 2.500
Fe 30.000 30.000 5.000
Cu 30.000 30.000 7.500
Fe 30.000 30.000 10.000
Cu 30.000 30.000 12.500
Fe 30.000 30.000 15.000
Cu 30.000 30.000 17.500
Fe 30.000 30.000 20.000
Cu 30.000 30.000 22.500
Fe 30.000 30.000 25.000
Cu 30.000 30.000 27.500
Fe 30.000 30.000 30.000
Cu 30.000 30.000 32.500
Fe 30.000 30.000 35.000
Cu 30.000 30.000 37.500
Fe 30.000 30.000 40.000
Cu 30.000 30.000 42.500
Fe 30.000 30.000 45.000
Cu 30.000 30.000 47.500
Fe 30.000 30.000 50.000
Cu 30.000 30.000 52.500
Fe 30.000 30.000 55.000
Cu 30.000 32.500 0.000
Fe 30.000 32.500 2.500
Cu 30.000 32.500 5.000
Fe 30.000 32.500 7.500
Cu 30.000 32.500 10.000
Fe 30.000 32.500 12.500
Cu 30.000 32.500 15.000
Fe 30.000 32.500 17.500
Cu 30.000 32.500 20.000
Fe 30.000 32.500 22.500
Cu 30.000 32.500 25.000
Fe 30.000 32.500 27.500
Cu 30.000 32.500 30.000
Fe 30.000 32.500 32.500
Cu 30.000 32.500 35.000
Fe 30.000 32.500 37.500
Cu 30.000 32.500 40.000
Fe 30.000 32.500 42.500
Cu 30.000 32.500 45.000
Fe 30.000 32.500 47.500
Cu 30.000 32.500 50.000
Fe 30.000 32.500 52.500
Cu 30.000 32.500 55.000
Fe 30.000 35.000 0.000
Cu 30.000 35.000 2.500
Fe 30.000 35.000 5.000
Cu 30.000 35.000 7.500
Fe 30.000 35.000 10.000
Cu 30.000 35.000 12.500
Fe 30.000 35.000 15.000
Cu 30.000 35.000 17.500
Fe 30.000 35.000 20.000
Cu 30.000 35.000 22.500
Fe 30.000 35.000 25.000
Cu 30.000 35.000 27.500
Fe 30.000 35.000 30.000
Cu 30.000 35.000 32.500
Fe 30.000 35.000 35.000
Cu 30.000 35.000 37.500
Fe 30.000 35.000 40.000
Cu 30.000 35.000 42.500
Fe 30.000 35.000 45.000
Cu 30.000 35.000 47.500
Fe 30.000 35.000 50.000
Cu 30.000 35.000 52.500
Fe 30.000 35.000 55.000
Cu 30.000 37.500 0.000
Fe 30.000 37.500 2.500
Cu 30.000 37.500 5.000
Fe 30.000 37.500 7.500
Cu 30.000 37.500 10.000
Fe 30.000 37.500 12.500
Cu 30.000 37.500 15.000
Fe 30.000 37.500 17.500
Cu 30.000 37.500 20.000
Fe 30.000 37.500 22.500
Cu 30.000 37.500 25.000
Fe 30.000 37.500 27.500
Cu 30.000 37.500 30.000
Fe 30.000 37.500 32.500
Cu 30.000 37.500 35.000
Fe 30.000 37.500 37.500
Cu 30.000 37.500 40.000
Fe 30.000 37.500 42.500
Cu 30.000 37.500 45.000
Fe 30.000 37.500 47.500
Cu 30.000 37.500 50.000
Fe 30.000 37.500 52.500
Cu 30.000 37.500 55.000
Fe 30.000 40.000 0.000
Cu 30.000 40.000 2.500
Fe 30.000 40.000 5.000
Cu 30.000 40.000 7.500
Fe 30.000 40.000 10.000
Cu 30.000 40.000 12.500
Fe 30.000 40.000 15.000
Cu 30.000 40.000 17.500
Fe 30.000 40.000 20.000
Cu 30.000 40.000 22.500
Fe 30.000 40.000 25.000
Cu 30.000 40.000 27.500
Fe 30.000 40.000 30.000
Cu 30.000 40.000 32.500
Fe 30.000 40.000 35.000
Cu 30.000 40.000 37.500
Fe 30.000 40.000 40.000
Cu 30.000 40.000 42.500
Fe 30.000 40.000 45.000
Cu 30.000 40.000 47.500
Fe 30.000 40.000 50.000
Cu 30.000 40.000 52.500
Fe 30.000 40.000 55.000
Cu 30.000 42.500 0.000
Fe 30.000 42.500 2.500
Cu 30.000 42.500 5.000
Fe 30.000 42.500 7.500
Cu 30.000 42.500 10.000
Fe 30.000 42.500 12.500
Cu 30.000 42.500 15.000
Fe 30.000 42.500 17.500
Cu 30.000 42.500 20.000
Fe 30.000 42.500 22.500
Cu 30.000 42.500 25.000
Fe 30.000 42.500 27.500
Cu 30.000 42.500 30.000
Fe 30.000 42.500 32.500
Cu 30.000 42.500 35.000
Fe 30.000 42.500 37.500
Cu 30.000 42.500 40.000
Fe 30.000 42.500 42.500
Cu 30.000 42.500 45.000
Fe 30.000 42.500 47.500
Cu 30.000 42.500 50.000
Fe 30.000 42.500 52.500
Cu 30.000 42.500 55.000
Fe 30.000 45.000 0.000
Cu 30.000 45.000 2.500
Fe 30.000 45.000 5.000
Cu 30.000 45.000 7.500
Fe 30.000 45.000 10.000
Cu 30.000 45.000 12.500
Fe 30.000 45.000 15.000
Cu 30.000 45.000 17.500
Fe 30.000 45.000 20.000
Cu 30.000 45.000 22.500
Fe 30.000 45.000 25.000
Cu 30.000 45.000 27.500
Fe 30.000 45.000 30.000
Cu 30.000 45.000 32.500
Fe 30.000 45.000 35.000
Cu 30.000 45.000 37.500
Fe 30.000 45.000 40.000
Cu 30.000 45.000 42.500
Fe 30.000 45.000 45.000
Cu 30.000 45.000 47.500
Fe 30.000 45.000 50.000
Cu 30.000 45.000 52.500
Fe 30.000 45.000 55.000
Cu 30.000 47.500 0.000
Fe 30.000 47.500 2.500
Cu 30.000 47.500 5.000
Fe 30.000 47.500 7.500
Cu 30.000 47.500 10.000
Fe 30.000 47.500 12.500
Cu 30.000 47.500 15.000
Fe 30.000 47.500 17.500
Cu 30.000 47.500 20.000
Fe 30.000 47.500 22.500
Cu 30.000 47.500 25.000
Fe 30.000 47.500 27.500
Cu 30.000 47.500 30.000
Fe 30.000 47.500 32.500
Cu 30.000 47.500 35.000
Fe 30.000 47.500 37.500
Cu 30.000 47.500 40.000
Fe 30.000 47.500 42.500
Cu 30.000 47.500 45.000
Fe 30.000 47.500 47.500
Cu 30.000 47.500 50.000
Fe 30.000 47.500 52.500
Cu 30.000 47.500 55.000
Fe 30.000 50.000 0.000
Cu 30.000 50.000 2.500
Fe 30.000 50.000 5.000
Cu 30.000 50.000 7.500
Fe 30.000 50.000 10.000
Cu 30.000 50.000 12.500
Fe 30.000 50.000 15.000
Cu 30.000 50.000 17.500
Fe 30.000 50.000 20.000
Cu 30.000 50.000 22.500
Fe 30.000 50.000 25.000
Cu 30.000 50.000 27.500
Fe 30.000 50.000 30.000
Cu 30.000 50.000 32.500
Fe 30.000 50.000 35.000
Cu 30.000 50.000 37.500
Fe 30.000 50.000 40.000
Cu 30.000 50.000 42.500
Fe 30.000 50.000 45.000
Cu 30.000 50.000 47.500
Fe 30.000 50.000 50.000
Cu 30.000 50.000 52.500
Fe 30.000 50.000 55.000
Cu 30.000 52.500 0.000
Fe 30.000 52.500 2.500
Cu 30.000 52.500 5.000
Fe 30.000 52.500 7.500
Cu 30.000 52.500 10.000
Fe 30.000 52.500 12.500
Cu 30.000 52.500 15.000
Fe 30.000 52.500 17.500
Cu 30.000 52.500 20.000
Fe 30.000 52.500 22.500
Cu 30.000 52.500 25.000
Fe 30.000 52.500 27.500
Cu 30.000 52.500 30.000
Fe 30.000 52.500 32.500
Cu 30.000 52.500 35.000
Fe 30.000 52.500 37.500
Cu 30.000 52.500 40.000
Fe 30.000 52.500 42.500
Cu 30.000 52.500 45.000
Fe 30.000 52.500 47.500
Cu 30.000 52.500 50.000
Fe 30.000 52.500 52.500
Cu 30.000 52.500 55.000
Fe 30.000 55.000 0.000
Cu 30.000 55.000 2.500
Fe 30.000 55.000 5.000
Cu 30.000 55.000 7.500
Fe 30.000 55.000 10.000
Cu 30.000 55.000 12.500
Fe 30.000 55.000 15.000
Cu 30.000 55.000 17.500
Fe 30.000 55.000 20.000
Cu 30.000 55.000 22.500
Fe 30.000 55.000 25.000
Cu 30.000 55.000 27.500
Fe 30.000 55.000 30.000
Cu 30.000 55.000 32.500
Fe 30.000 55.000 35.000
Cu 30.000 55.000 37.500
Fe 30.000 55.000 40.000
Cu 30.000 55.000 42.500
Fe 30.000 55.000 45.000
Cu 30.000 55.000 47.500
Fe 30.000 55.000 50.000
Cu 30.000 55.000 52.500
Fe 30.000 55.000 55.000
Cu 32.500 0.000 0.000
Fe 32.500 0.000 2.500
Cu 32.500 0.000 5.000
Fe 32.500 0.000 7.500
Cu 32.500 0.000 10.000
Fe 32.500 0.000 12.500
Cu 32.500 0.000 15.000
Fe 32.500 0.000 17.500
Cu 32.500 0.000 20.000
Fe 32.500 0.000 22.500
Cu 32.500 0.000 25.000
Fe 32.500 0.000 27.500
Cu 32.500 0.000 30.000
Fe 32.500 0.000 32.500
Cu 32.500 0.000 35.000
Fe 32.500 0.000 37.500
Cu 32.500 0.000 40.000
Fe 32.500 0.000 42.500
Cu 32.500 0.000 45.000
Fe 32.500 0.000 47.500
Cu 32.500 0.000 50.000
Fe 32.500 0.000 52.500
Cu 32.500 0.000 55.000
Fe 32.500 2.500 0.000
Cu 32.500 2.500 2.500
Fe 32.500 2.500 5.000
Cu 32.500 2.500 7.500
Fe 32.500 2.500 10.000
Cu 32.500 2.500 12.500
Fe 32.500 2.500 15.000
Cu 32.500 2.500 17.500
Fe 32.500 2.500 20.000
Cu 32.500 2.500 22.500
Fe 32.500 2.500 25.000
Cu 32.500 2.500 27.500
Fe 32.500 2.500 30.000
Cu 32.500 2.500 32.500
Fe 32.500 2.500 35.000
Cu 32.500 2.500 37.500
Fe 32.500 2.500 40.000
Cu 32.500 2.500 42.500
Fe 32.500 2.500 45.000
Cu 32.500 2.500 47.500
Fe 32.500 2.500 50.000
Cu 32.500 2.500 52.500
Fe 32.500 2.500 55.000
Cu 32.500 5.000 0.000
Fe 32.500 5.000 2.500
Cu 32.500 5.000 5.000
Fe 32.500 5.000 7.500
Cu 32.500 5.000 10.000
Fe 32.500 5.000 12.500
Cu 32.500 5.000 15.000
Fe 32.500 5.000 17.500
Cu 32.500 5.000 20.000
Fe 32.500 5.000 22.500
Cu 32.500 5.000 25.000
Fe 32.500 5.000 27.500
Cu 32.500 5.000 30.000
Fe 32.500 5.000 32.500
Cu 32.500 5.000 35.000
Fe 32.500 5.000 37.500
Cu 32.500 5.000 40.000
Fe 32.500 5.000 42.500
Cu 32.500 5.000 45.000
Fe 32.500 5.000 47.500
Cu 32.500 5.000 50.000
Fe 32.500 5.000 52.500
Cu 32.500 5.000 55.000
Fe 32.500 7.500 0.000
Cu 32.500 7.500 2.500
Fe 32.500 7.500 5.000
Cu 32.500 7.500 7.500
Fe 32.500 7.500 10.000
Cu 32.500 7.500 12.500
Fe 32.500 7.500 15.000
Cu 32.500 7.500 17.500
Fe 32.500 7.500 20.000
Cu 32.500 7.500 22.500
Fe 32.500 7.500 25.000
Cu 32.500 7.500 27.500
Fe 32.500 7.500 30.000
Cu 32.500 7.500 32.500
Fe 32.500 7.500 35.000
Cu 32.500 7.500 37.500
Fe 32.500 7.500 40.000
Cu 32.500 7.500 42.500
Fe 32.500 7.500 45.000
Cu 32.500 7.500 47.500
Fe 32.500 7.500 50.000
Cu 32.500 7.500 52.500
Fe 32.500 7.500 55.000
Cu 32.500 10.000 0.000
Fe 32.500 10.000 2.500
Cu 32.500 10.000 5.000
Fe 32.500 10.000 7.500
Cu 32.500 10.000 10.000
Fe 32.500 10.000 12.500
Cu 32.500 10.000 15.000
Fe 32.500 10.000 17.500
Cu 32.500 10.000 20.000
Fe 32.500 10.000 22.500
Cu 32.500 10.000 25.000
Fe 32.500 10.000 27.500
Cu 32.500 10.000 30.000
Fe 32.500 10.000 32.500
Cu 32.500 10.000 35.000
Fe 32.500 10.000 37.500
Cu 32.500 10.000 40.000
Fe 32.500 10.000 42.500
Cu 32.500 10.000 45.000
Fe 32.500 10.000 47.500
Cu 32.500 10.000 50.000
Fe 32.500 10.000 52.500
Cu 32.500 10.000 55.000
Fe 32.500 12.500 0.000
Cu 32.500 12.500 2.500
Fe 32.500 12.500 5.000
Cu 32.500 12.500 7.500
Fe 32.500 12.500 10.000
Cu 32.500 12.500 12.500
Fe 32.500 12.500 15.000
Cu 32.500 12.500 17.500
Fe 32.500 12.500 20.000
Cu 32.500 12.500 22.500
Fe 32.500 12.500 25.000
Cu 32.500 12.500 27.500
Fe 32.500 12.500 30.000
Cu 32.500 12.500 32.500
Fe 32.500 12.500 35.000
Cu 32.500 12.500 37.500
Fe 32.500 12.500 40.000
Cu 32.500 12.500 42.500
Fe 32.500 12.500 45.000
Cu 32.500 12.500 47.500
Fe 32.500 12.500 50.000
Cu 32.500 12.500 52.500
Fe 32.500 12.500 55.000
Cu 32.500 15.000 0.000
Fe 32.500 15.000 2.500
Cu 32.500 15.000 5.000
Fe 32.500 15.000 7.500
Cu 32.500 15.000 10.000
Fe 32.500 15.000 12.500
Cu 32.500 15.000 15.000
Fe 32.500 15.000 17.500
Cu 32.500 15.000 20.000
Fe 32.500 15.000 22.500
Cu 32.500 15.000 25.000
Fe 32.500 15.000 27.500
Cu 32.500 15.000 30.000
Fe 32.500 15.000 32.500
Cu 32.500 15.000 35.000
Fe 32.500 15.000 37.500
Cu 32.500 15.000 40.000
Fe 32.500 15.000 42.500
Cu 32.500 15.000 45.000
Fe 32.500 15.000 47.500
Cu 32.500 15.000 50.000
Fe 32.500 15.000 52.500
Cu 32.500 15.000 55.000
Fe 32.500 17.500 0.000
Cu 32.500 17.500 2.500
Fe 32.500 17.500 5.000
Cu 32.500 17.500 7.500
Fe 32.500 17.500 10.000
Cu 32.500 17.500 12.500
Fe 32.500 17.500 15.000
Cu 32.500 17.500 17.500
Fe 32.500 17.500 20.000
Cu 32.500 17.500 22.500
Fe 32.500 17.500 25.000
Cu 32.500 17.500 27.500
Fe 32.500 17.500 30.000
Cu 32.500 17.500 32.500
Fe 32.500 17.500 35.000
Cu 32.500 17.500 37.500
Fe 32.500 17.500 40.000
Cu 32.500 17.500 42.500
Fe 32.500 17.500 45.000
Cu 32.500 17.500 47.500
Fe 32.500 17.500 50.000
Cu 32.500 17.500 52.500
Fe 32.500 17.500 55.000
Cu 32.500 20.000 0.000
Fe 32.500 20.000 2.500
Cu 32.500 20.000 5.000
Fe 32.500 20.000 7.500
Cu 32.500 20.000 10.000
Fe 32.500 20.000 12.500
Cu 32.500 20.000 15.000
Fe 32.500 20.000 17.500
Cu 32.500 20.000 20.000
Fe 32.500 20.000 22.500
Cu 32.500 20.000 25.000
Fe 32.500 20.000 27.500
Cu 32.500 20.000 30.000
Fe 32.500 20.000 32.500
Cu 32.500 20.000 35.000
Fe 32.500 20.000 37.500
Cu 32.500 20.000 40.000
Fe 32.500 20.000 42.500
Cu 32.500 20.000 45.000
Fe 32.500 20.000 47.500
Cu 32.500 20.000 50.000
Fe 32.500 20.000 52.500
Cu 32.500 20.000 55.000
Fe 32.500 22.500 0.000
Cu 32.500 22.500 2.500
Fe 32.500 22.500 5.000
Cu 32.500 22.500 7.500
Fe 32.500 22.500 10.000
Cu 32.500 22.500 12.500
Fe 32.500 22.500 15.000
Cu 32.500 22.500 17.500
Fe 32.500 22.500 20.000
Cu 32.500 22.500 22.500
Fe 32.500 22.500 25.000
Cu 32.500 22.500 27.500
Fe 32.500 22.500 30.000
Cu 32.500 22.500 32.500
Fe 32.500 22.500 35.000
Cu 32.500 22.500 37.500
Fe 32.500 22.500 40.000
Cu 32.500 22.500 42.500
Fe 32.500 22.500 45.000
Cu 32.500 22.500 47.500
Fe 32.500 22.500 50.000
Cu 32.500 22.500 52.500
Fe 32.500 22.500 55.000
Cu 32.500 25.000 0.000
Fe 32.500 25.000 2.500
Cu 32.500 25.000 5.000
Fe 32.500 25.000 7.500
Cu 32.500 25.000 10.000
Fe 32.500 25.000 12.500
Cu 32.500 25.000 15.000
Fe 32.500 25.000 17.500
Cu 32.500 25.000 20.000
Fe 32.500 25.000 22.500
Cu 32.500 25.000 25.000
Fe 32.500 25.000 27.500
Cu 32.500 25.000 30.000
Fe 32.500 25.000 32.500
Cu 32.500 25.000 35.000
Fe 32.500 25.000 37.500
Cu 32.500 25.000 40.000
Fe 32.500 25.000 42.500
Cu 32.500 25.000 45.000
Fe 32.500 25.000 47.500
Cu 32.500 25.000 50.000
Fe 32.500 25.000 52.500
Cu 32.500 25.000 55.000
Fe 32.500 27.500 0.000
Cu 32.500 27.500 2.500
Fe 32.500 27.500 5.000
Cu 32.500 27.500 7.500
Fe 32.500 27.500 10.000
Cu 32.500 27.500 12.500
Fe 32.500 27.500 15.000
Cu 32.500 27.500 17.500
Fe 32.500 27.500 20.000
Cu 32.500 27.500 22.500
Fe 32.500 27.500 25.000
Cu 32.500 27.500 27.500
Fe 32.500 27.500 30.000
Cu 32.500 27.500 32.500
Fe 32.500 27.500 35.000
Cu 32.500 27.500 37.500
Fe 32.500 27.500 40.000
Cu 32.500 27.500 42.500
Fe 32.500 27.500 45.000
Cu 32.500 27.500 47.500
Fe 32.500 27.500 50.000
Cu 32.500 27.500 52.500
Fe 32.500 27.500 55.000
Cu 32.500 30.000 0.000
Fe 32.500 30.000 2.500
Cu 32.500 30.000 5.000
Fe 32.500 30.000 7.500
Cu 32.500 30.000 10.000
Fe 32.500 30.000 12.500
Cu 32.500 30.000 15.000
Fe 32.500 30.000 17.500
Cu 32.500 30.000 20.000
Fe 32.500 30.000 22.500
Cu 32.500 30.000 25.000
Fe 32.500 30.000 27.500
Cu 32.500 30.000 30.000
Fe 32.500 30.000 32.500
Cu 32.500 30.000 35.000
Fe 32.500 30.000 37.500
Cu 32.500 30.000 40.000
Fe 32.500 30.000 42.500
Cu 32.500 30.000 45.000
Fe 32.500 30.000 47.500
Cu 32.500 30.000 50.000
Fe 32.500 30.000 52.500
Cu 32.500 30.000 55.000
Fe 32.500 32.500 0.000
Cu 32.500 32.500 2.500
Fe 32.500 32.500 5.000
Cu 32.500 32.500 7.500
Fe 32.500 32.500 10.000
Cu 32.500 32.500 12.500
Fe 32.500 32.500 15.000
Cu 32.500 32.500 17.500
Fe 32.500 32.500 20.000
Cu 32.500 32.500 22.500
Fe 32.500 32.500 25.000
Cu 32.500 32.500 27.500
Fe 32.500 32.500 30.000
Cu 32.500 32.500 32.500
Fe 32.500 32.500 35.000
Cu 32.500 32.500 37.500
Fe 32.500 32.500 40.000
Cu 32.500 32.500 42.500
Fe 32.500 32.500 45.000
Cu 32.500 32.500 47.500
Fe 32.500 32.500 50.000
Cu 32.500 32.500 52.500
Fe 32.500 32.500 55.000
Cu 32.500 35.000 0.000
Fe 32.500 35.000 2.500
Cu 32.500 35.000 5.000
Fe 32.500 35.000 7.500
Cu 32.500 35.000 10.000
Fe 32.500 35.000 12.500
Cu 32.500 35.000 15.000
Fe 32.500 35.000 17.500
Cu 32.500 35.000 20.000
Fe 32.500 35.000 22.500
Cu 32.500 35.000 25.000
Fe 32.500 35.000 27.500
Cu 32.500 35.000 30.000
Fe 32.500 35.000 32.500
Cu 32.500 35.000 35.000
Fe 32.500 35.000 37.500
Cu 32.500 35.000 40.000
Fe 32.500 35.000 42.500
Cu 32.500 35.000 45.000
Fe 32.500 35.000 47.500
Cu 32.500 35.000 50.000
Fe 32.500 35.000 52.500
Cu 32.500 35.000 55.000
Fe 32.500 37.500 0.000
Cu 32.500 37.500 2.500
Fe 32.500 37.500 5.000
Cu 32.500 37.500 7.500
Fe 32.500 37.500 10.000
Cu 32.500 37.500 12.500
Fe 32.500 37.500 15.000
Cu 32.500 37.500 17.500
Fe 32.500 37.500 20.000
Cu 32.500 37.500 22.500
Fe 32.500 37.500 25.000
Cu 32.500 37.500 27.500
Fe 32.500 37.500 30.000
Cu 32.500 37.500 32.500
Fe 32.500 37.500 35.000
Cu 32.500 37.500 37.500
Fe 32.500 37.500 40.000
Cu 32.500 37.500 42.500
Fe 32.500 37.500 45.000
Cu 32.500 37.500 47.500
Fe 32.500 37.500 50.000
Cu 32.500 37.500 52.500
Fe 32.500 37.500 55.000
Cu 32.500 40.000 0.000
Fe 32.500 40.000 2.500
Cu 32.500 40.000 5.000
Fe 32.500 40.000 7.500
Cu 32.500 40.000 10.000
Fe 32.500 40.000 12.500
Cu 32.500 40.000 15.000
Fe 32.500 40.000 17.500
Cu 32.500 40.000 20.000
Fe 32.500 40.000 22.500
Cu 32.500 40.000 25.000
Fe 32.500 40.000 27.500
Cu 32.500 40.000 30.000
Fe 32.500 40.000 32.500
Cu 32.500 40.000 35.000
Fe 32.500 40.000 37.500
Cu 32.500 40.000 40.000
Fe 32.500 40.000 42.500
Cu 32.500 40.000 45.000
Fe 32.500 40.000 47.500
Cu 32.500 40.000 50.000
Fe 32.500 40.000 52.500
Cu 32.500 40.000 55.000
Fe 32.500 42.500 0.000
Cu 32.500 42.500 2.500
Fe 32.500 42.500 5.000
Cu 32.500 42.500 7.500
Fe 32.500 42.500 10.000
Cu 32.500 42.500 12.500
Fe 32.500 42.500 15.000
Cu 32.500 42.500 17.500
Fe 32.500 42.500 20.000
Cu 32.500 42.500 22.500
Fe 32.500 42.500 25.000
Cu 32.500 42.500 27.500
Fe 32.500 42.500 30.000
Cu 32.500 42.500 32.500
Fe 32.500 42.500 35.000
Cu 32.500 42.500 37.500
Fe 32.500 42.500 40.000
Cu 32.500 42.500 42.500
Fe 32.500 42.500 45.000
Cu 32.500 42.500 47.500
Fe 32.500 42.500 50.000
Cu 32.500 42.500 52.500
Fe 32.500 42.500 55.000
Cu 32.500 45.000 0.000
Fe 32.500 45.000 2.500
Cu 32.500 45.000 5.000
Fe 32.500 45.000 7.500
Cu 32.500 45.000 10.000
Fe 32.500 45.000 12.500
Cu 32.500 45.000 15.000
Fe 32.500 45.000 17.500
Cu 32.500 45.000 20.000
Fe 32.500 45.000 22.500
Cu 32.500 45.000 25.000
Fe 32.500 45.000 27.500
Cu 32.500 45.000 30.000
Fe 32.500 45.000 32.500
Cu 32.500 45.000 35.000
Fe 32.500 45.000 37.500
Cu 32.500 45.000 40.000
Fe 32.500 45.000 42.500
Cu 32.500 45.000 45.000
Fe 32.500 45.000 47.500
Cu 32.500 45.000 50.000
Fe 32.500 45.000 52.500
Cu 32.500 45.000 55.000
Fe 32.500 47.500 0.000
Cu 32.500 47.500 2.500
Fe 32.500 47.500 5.000
Cu 32.500 47.500 7.500
Fe 32.500 47.500 10.000
Cu 32.500 47.500 12.500
Fe 32.500 47.500 15.000
Cu 32.500 47.500 17.500
Fe 32.500 47.500 20.000
Cu 32.500 47.500 22.500
Fe 32.500 47.500 25.000
Cu 32.500 47.500 27.500
Fe 32.500 47.500 30.000
Cu 32.500 47.500 32.500
Fe 32.500 47.500 35.000
Cu 32.500 47.500 37.500
Fe 32.500 47.500 40.000
Cu 32.500 47.500 42.500
Fe 32.500 47.500 45.000
Cu 32.500 47.500 47.500
Fe 32.500 47.500 50.000
Cu 32.500 47.500 52.500
Fe 32.500 47.500 55.000
Cu 32.500 50.000 0.000
Fe 32.500 50.000 2.500
Cu 32.500 50.000 5.000
Fe 32.500 50.000 7.500
Cu 32.500 50.000 10.000
Fe 32.500 50.000 12.500
Cu 32.500 50.000 15.000
Fe 32.500 50.000 17.500
Cu 32.500 50.000 20.000
Fe 32.500 50.000 22.500
Cu 32.500 50.000 25.000
Fe 32.500 50.000 27.500
Cu 32.500 50.000 30.000
Fe 32.500 50.000 32.500
Cu 32.500 50.000 35.000
Fe 32.500 50.000 37.500
Cu 32.500 50.000 40.000
Fe 32.500 50.000 42.500
Cu 32.500 50.000 45.000
Fe 32.500 50.000 47.500
Cu 32.500 50.000 50.000
Fe 32.500 50.000 52.500
Cu 32.500 50.000 55.000
Fe 32.500 52.500 0.000
Cu 32.500 52.500 2.500
Fe 32.500 52.500 5.000
Cu 32.500 52.500 7.500
Fe 32.500 52.500 10.000
Cu 32.500 52.500 12.500
Fe 32.500 52.500 15.000
Cu 32.500 52.500 17.500
Fe 32.500 52.500 20.000
Cu 32.500 52.500 22.500
Fe 32.500 52.500 25.000
Cu 32.500 52.500 27.500
Fe 32.500 52.500 30.000
Cu 32.500 52.500 32.500
Fe 32.500 52.500 35.000
Cu 32.500 52.500 37.500
Fe 32.500 52.500 40.000
Cu 32.500 52.500 42.500
Fe 32.500 52.500 45.000
Cu 32.500 52.500 47.500
Fe 32.500 52.500 50.000
Cu 32.500 52.500 52.500
Fe 32.500 52.500 55.000
Cu 32.500 55.000 0.000
Fe 32.500 55.000 2.500
Cu 32.500 55.000 5.000
Fe 32.500 55.000 7.500
Cu 32.500 55.000 10.000
Fe 32.500 55.000 12.500
Cu 32.500 55.000 15.000
Fe 32.500 55.000 17.500
Cu 32.500 55.000 20.000
Fe 32.500 55.000 22.500
Cu 32.500 55.000 25.000
Fe 32.500 55.000 27.500
Cu 32.500 55.000 30.000
Fe 32.500 55.000 32.500
Cu 32.500 55.000 35.000
Fe 32.500 55.000 37.500
Cu 32.500 55.000 40.000
Fe 32.500 55.000 42.500
Cu 32.500 55.000 45.000
Fe 32.500 55.000 47.500
Cu 32.500 55.000 50.000
Fe 32.500 55.000 52.500
Cu 32.500 55.000 55.000
Fe 35.000 0.000 0.000
Cu 35.000 0.000 2.500
Fe 35.000 0.000 5.000
Cu 35.000 0.000 7.500
Fe 35.000 0.000 10.000
Cu 35.000 0.000 12.500
Fe 35.000 0.000 15.000
Cu 35.000 0.000 17.500
Fe 35.000 0.000 20.000
Cu 35.000 0.000 22.500
Fe 35.000 0.000 25.000
Cu 35.000 0.000 27.500
Fe 35.000 0.000 30.000
Cu 35.000 0.000 32.500
Fe 35.000 0.000 35.000
Cu 35.000 0.000 37.500
Fe 35.000 0.000 40.000
Cu 35.000 0.000 42.500
Fe 35.000 0.000 45.000
Cu 35.000 0.000 47.500
Fe 35.000 0.000 50.000
Cu 35.000 0.000 52.500
Fe 35.000 0.000 55.000
Cu 35.000 2.500 0.000
Fe 35.000 2.500 2.500
Cu 35.000 2.500 5.000
Fe 35.000 2.500 7.500
Cu 35.000 2.500 10.000
Fe 35.000 2.500 12.500
Cu 35.000 2.500 15.000
Fe 35.000 2.500 17.500
Cu 35.000 2.500 20.000
Fe 35.000 2.500 22.500
Cu 35.000 2.500 25.000
Fe 35.000 2.500 27.500
Cu 35.000 2.500 30.000
Fe 35.000 2.500 32.500
Cu 35.000 2.500 35.000
Fe 35.000 2.500 37.500
Cu 35.000 2.500 40.000
Fe 35.000 2.500 42.500
Cu 35.000 2.500 45.000
Fe 35.000 2.500 47.500
Cu 35.000 2.500 50.000
Fe 35.000 2.500 52.500
Cu 35.000 2.500 55.000
Fe 35.000 5.000 0.000
Cu 35.000 5.000 2.500
Fe 35.000 5.000 5.000
Cu 35.000 5.000 7.500
Fe 35.000 5.000 10.000
Cu 35.000 5.000 12.500
Fe 35.000 5.000 15.000
Cu 35.000 5.000 17.500
Fe 35.000 5.000 20.000
Cu 35.000 5.000 22.500
Fe 35.000 5.000 25.000
Cu 35.000 5.000 27.500
Fe 35.000 5.000 30.000
Cu 35.000 5.000 32.500
Fe 35.000 5.000 35.000
Cu 35.000 5.000 37.500
Fe 35.000 5.000 40.000
Cu 35.000 5.000 42.500
Fe 35.000 5.000 45.000
Cu 35.000 5.000 47.500
Fe 35.000 5.000 50.000
Cu 35.000 5.000 52.500
Fe 35.000 5.000 55.000
Cu 35.000 7.500 0.000
Fe 35.000 7.500 2.500
Cu 35.000 7.500 5.000
Fe 35.000 7.500 7.500
Cu 35.000 7.500 10.000
Fe 35.000 7.500 12.500
Cu 35.000 7.500 15.000
Fe 35.000 7.500 17.500
Cu 35.000 7.500 20.000
Fe 35.000 7.500 22.500
Cu 35.000 7.500 25.000
Fe 35.000 7.500 27.500
Cu 35.000 7.500 30.000
Fe 35.000 7.500 32.500
Cu 35.000 7.500 35.000
Fe 35.000 7.500 37.500
Cu 35.000 7.500 40.000
Fe 35.000 7.500 42.500
Cu 35.000 7.500 45.000
Fe 35.000 7.500 47.500
Cu 35.000 7.500 50.000
Fe 35.000 7.500 52.500
Cu 35.000 7.500 55.000
Fe 35.000 10.000 0.000
Cu 35.000 10.000 2.500
Fe 35.000 10.000 5.000
Cu 35.000 10.000 7.500
Fe 35.000 10.000 10.000
Cu 35.000 10.000 12.500
Fe 35.000 10.000 15.000
Cu 35.000 10.000 17.500
Fe 35.000 10.000 20.000
Cu 35.000 10.000 22.500
Fe 35.000 10.000 25.000
Cu 35.000 10.000 27.500
Fe 35.000 10.000 30.000
Cu 35.000 10.000 32.500
Fe 35.000 10.000 35.000
Cu 35.000 10.000 37.500
Fe 35.000 10.000 40.000
Cu 35.000 10.000 42.500
Fe 35.000 10.000 45.000
Cu 35.000 10.000 47.500
Fe 35.000 10.000 50.000
Cu 35.000 10.000 52.500
Fe 35.000 10.000 55.000
Cu 35.000 12.500 0.000
Fe 35.000 12.500 2.500
Cu 35.000 12.500 5.000
Fe 35.000 12.500 7.500
Cu 35.000 12.500 10.000
Fe 35.000 12.500 12.500
Cu 35.000 12.500 15.000
Fe 35.000 12.500 17.500
Cu 35.000 12.500 20.000
Fe 35.000 12.500 22.500
Cu 35.000 12.500 25.000
Fe 35.000 12.500 27.500
Cu 35.000 12.500 30.000
Fe 35.000 12.500 32.500
Cu 35.000 12.500 35.000
Fe 35.000 12.500 37.500
Cu 35.000 12.500 40.000
Fe 35.000 12.500 42.500
Cu 35.000 12.500 45.000
Fe 35.000 12.500 47.500
Cu 35.000 12.500 50.000
Fe 35.000 12.500 52.500
Cu 35.000 12.500 55.000
Fe 35.000 15.000 0.000
Cu 35.000 15.000 2.500
Fe 35.000 15.000 5.000
Cu 35.000 15.000 7.500
Fe 35.000 15.000 10.000
Cu 35.000 15.000 12.500
Fe 35.000 15.000 15.000
Cu 35.000 15.000 17.500
Fe 35.000 15.000 20.000
Cu 35.000 15.000 22.500
Fe 35.000 15.000 25.000
Cu 35.000 15.000 27.500
Fe 35.000 15.000 30.000
Cu 35.000 15.000 32.500
Fe 35.000 15.000 35.000
Cu 35.000 15.000 37.500
Fe 35.000 15.000 40.000
Cu 35.000 15.000 42.500
Fe 35.000 15.000 45.000
Cu 35.000 15.000 47.500
Fe 35.000 15.000 50.000
Cu 35.000 15.000 52.500
Fe 35.000 15.000 55.000
Cu 35.000 17.500 0.000
Fe 35.000 17.500 2.500
Cu 35.000 17.500 5.000
Fe 35.000 17.500 7.500
Cu 35.000 17.500 10.000
Fe 35.000 17.500 12.500
Cu 35.000 17.500 15.000
Fe 35.000 17.500 17.500
Cu 35.000 17.500 20.000
Fe 35.000 17.500 22.500
Cu 35.000 17.500 25.000
Fe 35.000 17.500 27.500
Cu 35.000 17.500 30.000
Fe 35.000 17.500 32.500
Cu 35.000 17.500 35.000
Fe 35.000 17.500 37.500
Cu 35.000 17.500 40.000
Fe 35.000 17.500 42.500
Cu 35.000 17.500 45.000
Fe 35.000 17.500 47.500
Cu 35.000 17.500 50.000
Fe 35.000 17.500 52.500
Cu 35.000 17.500 55.000
Fe 35.000 20.000 0.000
Cu 35.000 20.000 2.500
Fe 35.000 20.000 5.000
Cu 35.000 20.000 7.500
Fe 35.000 20.000 10.000
Cu 35.000 20.000 12.500
Fe 35.000 20.000 15.000
Cu 35.000 20.000 17.500
Fe 35.000 20.000 20.000
Cu 35.000 20.000 22.500
Fe 35.000 20.000 25.000
Cu 35.000 20.000 27.500
Fe 35.000 20.000 30.000
Cu 35.000 20.000 32.500
Fe 35.000 20.000 35.000
Cu 35.000 20.000 37.500
Fe 35.000 20.000 40.000
Cu 35.000 20.000 42.500
Fe 35.000 20.000 45.000
Cu 35.000 20.000 47.500
Fe 35.000 20.000 50.000
Cu 35.000 20.000 52.500
Fe 35.000 20.000 55.000
Cu 35.000 22.500 0.000
Fe 35.000 22.500 2.500
Cu 35.000 22.500 5.000
Fe 35.000 22.500 7.500
Cu 35.000 22.500 10.000
Fe 35.000 22.500 12.500
Cu 35.000 22.500 15.000
Fe 35.000 22.500 17.500
Cu 35.000 22.500 20.000
Fe 35.000 22.500 22.500
Cu 35.000 22.500 25.000
Fe 35.000 22.500 27.500
Cu 35.000 22.500 30.000
Fe 35.000 22.500 32.500
Cu 35.000 22.500 35.000
Fe 35.000 22.500 37.500
Cu 35.000 22.500 40.000
Fe 35.000 22.500 42.500
Cu 35.000 22.500 45.000
Fe 35.000 22.500 47.500
Cu 35.000 22.500 50.000
Fe 35.000 22.500 52.500
Cu 35.000 22.500 55.000
Fe 35.000 25.000 0.000
Cu 35.000 25.000 2.500
Fe 35.000 25.000 5.000
Cu 35.000 25.000 7.500
Fe 35.000 25.000 10.000
Cu 35.000 25.000 12.500
Fe 35.000 25.000 15.000
Cu 35.000 25.000 17.500
Fe 35.000 25.000 20.000
Cu 35.000 25.000 22.500
Fe 35.000 25.000 25.000
Cu 35.000 25.000 27.500
Fe 35.000 25.000 30.000
Cu 35.000 25.000 32.500
Fe 35.000 25.000 35.000
Cu 35.000 25.000 37.500
Fe 35.000 25.000 40.000
Cu 35.000 25.000 42.500
Fe 35.000 25.000 45.000
Cu 35.000 25.000 47.500
Fe 35.000 25.000 50.000
Cu 35.000 25.000 52.500
Fe 35.000 25.000 55.000
Cu 35.000 27.500 0.000
Fe 35.000 27.500 2.500
Cu 35.000 27.500 5.000
Fe 35.000 27.500 7.500
Cu 35.000 27.500 10.000
Fe 35.000 27.500 12.500
Cu 35.000 27.500 15.000
Fe 35.000 27.500 17.500
Cu 35.000 27.500 20.000
Fe 35.000 27.500 22.500
Cu 35.000 27.500 25.000
Fe 35.000 27.500 27.500
Cu 35.000 27.500 30.000
Fe 35.000 27.500 32.500
Cu 35.000 27.500 35.000
Fe 35.000 27.500 37.500
Cu 35.000 27.500 40.000
Fe 35.000 27.500 42.500
Cu 35.000 27.500 45.000
Fe 35.000 27.500 47.500
Cu 35.000 27.500 50.000
Fe 35.000 27.500 52.500
Cu 35.000 27.500 55.000
Fe 35.000 30.000 0.000
Cu 35.000 30.000 2.500
Fe 35.000 30.000 5.000
Cu 35.000 30.000 7.500
Fe 35.000 30.000 10.000
Cu 35.000 30.000 12.500
Fe 35.000 30.000 15.000
Cu 35.000 30.000 17.500
Fe 35.000 30.000 20.000
Cu 35.000 30.000 22.500
Fe 35.000 30.000 25.000
Cu 35.000 30.000 27.500
Fe 35.000 30.000 30.000
Cu 35.000 30.000 32.500
Fe 35.000 30.000 35.000
Cu 35.000 30.000 37.500
Fe 35.000 30.000 40.000
Cu 35.000 30.000 42.500
Fe 35.000 30.000 45.000
Cu 35.000 30.000 47.500
Fe 35.000 30.000 50.000
Cu 35.000 30.000 52.500
Fe 35.000 30.000 55.000
Cu 35.000 32.500 0.000
Fe 35.000 32.500 2.500
Cu 35.000 32.500 5.000
Fe 35.000 32.500 7.500
Cu 35.000 32.500 10.000
Fe 35.000 32.500 12.500
Cu 35.000 32.500 15.000
Fe 35.000 32.500 17.500
Cu 35.000 32.500 20.000
Fe 35.000 32.500 22.500
Cu 35.000 32.500 25.000
Fe 35.000 32.500 27.500
Cu 35.000 32.500 30.000
Fe 35.000 32.500 32.500
Cu 35.000 32.500 35.000
Fe 35.000 32.500 37.500
Cu 35.000 32.500 40.000
Fe 35.000 32.500 42.500
Cu 35.000 32.500 45.000
Fe 35.000 32.500 47.500
Cu 35.000 32.500 50.000
Fe 35.000 32.500 52.500
Cu 35.000 32.500 55.000
Fe 35.000 35.000 0.000
Cu 35.000 35.000 2.500
Fe 35.000 35.000 5.000
Cu 35.000 35.000 7.500
Fe 35.000 35.000 10.000
Cu 35.000 35.000 12.500
Fe 35.000 35.000 15.000
Cu 35.000 35.000 17.500
Fe 35.000 35.000 20.000
Cu 35.000 35.000 22.500
Fe 35.000 35.000 25.000
Cu 35.000 35.000 27.500
Fe 35.000 35.000 30.000
Cu 35.000 35.000 32.500
Fe 35.000 35.000 35.000
Cu 35.000 35.000 37.500
Fe 35.000 35.000 40.000
Cu 35.000 35.000 42.500
Fe 35.000 35.000 45.000
Cu 35.000 35.000 47.500
Fe 35.000 35.000 50.000
Cu 35.000 35.000 52.500
Fe 35.000 35.000 55.000
Cu 35.000 37.500 0.000
Fe 35.000 37.500 2.500
Cu 35.000 37.500 5.000
Fe 35.000 37.500 7.500
Cu 35.000 37.500 10.000
Fe 35.000 37.500 12.500
Cu 35.000 37.500 15.000
Fe 35.000 37.500 17.500
Cu 35.000 37.500 20.000
Fe 35.000 37.500 22.500
Cu 35.000 37.500 25.000
Fe 35.000 37.500 27.500
Cu 35.000 37.500 30.000
Fe 35.000 37.500 32.500
Cu 35.000 37.500 35.000
Fe 35.000 37.500 37.500
Cu 35.000 37.500 40.000
Fe 35.000 37.500 42.500
Cu 35.000 37.500 45.000
Fe 35.000 37.500 47.500
Cu 35.000 37.500 50.000
Fe 35.000 37.500 52.500
Cu 35.000 37.500 55.000
Fe 35.000 40.000 0.000
Cu 35.000 40.000 2.500
Fe 35.000 40.000 5.000
Cu 35.000 40.000 7.500
Fe 35.000 40.000 10.000
Cu 35.000 40.000 12.500
Fe 35.000 40.000 15.000
Cu 35.000 40.000 17.500
Fe 35.000 40.000 20.000
Cu 35.000 40.000 22.500
Fe 35.000 40.000 25.000
Cu 35.000 40.000 27.500
Fe 35.000 40.000 30.000
Cu 35.000 40.000 32.500
Fe 35.000 40.000 35.000
Cu 35.000 40.000 37.500
Fe 35.000 40.000 40.000
Cu 35.000 40.000 42.500
Fe 35.000 40.000 45.000
Cu 35.000 40.000 47.500
Fe 35.000 40.000 50.000
Cu 35.000 40.000 52.500
Fe 35.000 40.000 55.000
Cu 35.000 42.500 0.000
Fe 35.000 42.500 2.500
Cu 35.000 42.500 5.000
Fe 35.000 42.500 7.500
Cu 35.000 42.500 10.000
Fe 35.000 42.500 12.500
Cu 35.000 42.500 15.000
Fe 35.000 42.500 17.500
Cu 35.000 42.500 20.000
Fe 35.000 42.500 22.500
Cu 35.000 42.500 25.000
Fe 35.000 42.500 27.500
Cu 35.000 42.500 30.000
Fe 35.000 42.500 32.500
Cu 35.000 42.500 35.000
Fe 35.000 42.500 37.500
Cu 35.000 42.500 40.000
Fe 35.000 42.500 42.500
Cu 35.000 42.500 45.000
Fe 35.000 42.500 47.500
Cu 35.000 42.500 50.000
Fe 35.000 42.500 52.500
Cu 35.000 42.500 55.000
Fe 35.000 45.000 0.000
Cu 35.000 45.000 2.500
Fe 35.000 45.000 5.000
Cu 35.000 45.000 7.500
Fe 35.000 45.000 10.000
Cu 35.000 45.000 12.500
Fe 35.000 45.000 15.000
Cu 35.000 45.000 17.500
Fe 35.000 45.000 20.000
Cu 35.000 45.000 22.500
Fe 35.000 45.000 25.000
Cu 35.000 45.000 27.500
Fe 35.000 45.000 30.000
Cu 35.000 45.000 32.500
Fe 35.000 45.000 35.000
Cu 35.000 45.000 37.500
Fe 35.000 45.000 40.000
Cu 35.000 45.000 42.500
Fe 35.000 45.000 45.000
Cu 35.000 45.000 47.500
Fe 35.000 45.000 50.000
Cu 35.000 45.000 52.500
Fe 35.000 45.000 55.000
Cu 35.000 47.500 0.000
Fe 35.000 47.500 2.500
Cu 35.000 47.500 5.000
Fe 35.000 47.500 7.500
Cu 35.000 47.500 10.000
Fe 35.000 47.500 12.500
Cu 35.000 47.500 15.000
Fe 35.000 47.500 17.500
Cu 35.000 47.500 20.000
Fe 35.000 47.500 22.500
Cu 35.000 47.500 25.000
Fe 35.000 47.500 27.500
Cu 35.000 47.500 30.000
Fe 35.000 47.500 32.500
Cu 35.000 47.500 35.000
Fe 35.000 47.500 37.500
Cu 35.000 47.500 40.000
Fe 35.000 47.500 42.500
Cu 35.000 47.500 45.000
Fe 35.000 47.500 47.500
Cu 35.000 47.500 50.000
Fe 35.000 47.500 52.500
Cu 35.000 47.500 55.000
Fe 35.000 50.000 0.000
Cu 35.000 50.000 2.500
Fe 35.000 50.000 5.000
Cu 35.000 50.000 7.500
Fe 35.000 50.000 10.000
Cu 35.000 50.000 12.500
Fe 35.000 50.000 15.000
Cu 35.000 50.000 17.500
Fe 35.000 50.000 20.000
Cu 35.000 50.000 22.500
Fe 35.000 50.000 25.000
Cu 35.000 50.000 27.500
Fe 35.000 50.000 30.000
Cu 35.000 50.000 32.500
Fe 35.000 50.000 35.000
Cu 35.000 50.000 37.500
Fe 35.000 50.000 40.000
Cu 35.000 50.000 42.500
Fe 35.000 50.000 45.000
Cu 35.000 50.000 47.500
Fe 35.000 50.000 50.000
Cu 35.000 50.000 52.500
Fe 35.000 50.000 55.000
Cu 35.000 52.500 0.000
Fe 35.000 52.500 2.500
Cu 35.000 52.500 5.000
Fe 35.000 52.500 7.500
Cu 35.000 52.500 10.000
Fe 35.000 52.500 12.500
Cu 35.000 52.500 15.000
Fe 35.000 52.500 17.500
Cu 35.000 52.500 20.000
Fe 35.000 52.500 22.500
Cu 35.000 52.500 25.000
Fe 35.000 52.500 27.500
Cu 35.000 52.500 30.000
Fe 35.000 52.500 32.500
Cu 35.000 52.500 35.000
Fe 35.000 52.500 37.500
Cu 35.000 52.500 40.000
Fe 35.000 52.500 42.500
Cu 35.000 52.500 45.000
Fe 35.000 52.500 47.500
Cu 35.000 52.500 50.000
Fe 35.000 52.500 52.500
Cu 35.000 52.500 55.000
Fe 35.000 55.000 0.000
Cu 35.000 55.000 2.500
Fe 35.000 55.000 5.000
Cu 35.000 55.000 7.500
Fe 35.000 55.000 10.000
Cu 35.000 55.000 12.500
Fe 35.000 55.000 15.000
Cu 35.000 55.000 17.500
Fe 35.000 55.000 20.000
Cu 35.000 55.000 22.500
Fe 35.000 55.000 25.000
Cu 35.000 55.000 27.500
Fe 35.000 55.000 30.000
Cu 35.000 55.000 32.500
Fe 35.000 55.000 35.000
Cu 35.000 55.000 37.500
Fe 35.000 55.000 40.000
Cu 35.000 55.000 42.500
Fe 35.000 55.000 45.000
Cu 35.000 55.000 47.500
Fe 35.000 55.000 50.000
Cu 35.000 55.000 52.500
Fe 35.000 55.000 55.000
Cu 37.500 0.000 0.000
Fe 37.500 0.000 2.500
Cu 37.500 0.000 5.000
Fe 37.500 0.000 7.500
Cu 37.500 0.000 10.000
Fe 37.500 0.000 12.500
Cu 37.500 0.000 15.000
Fe 37.500 0.000 17.500
Cu 37.500 0.000 20.000
Fe 37.500 0.000 22.500
Cu 37.500 0.000 25.000
Fe 37.500 0.000 27.500
Cu 37.500 0.000 30.000
Fe 37.500 0.000 32.500
Cu 37.500 0.000 35.000
Fe 37.500 0.000 37.500
Cu 37.500 0.000 40.000
Fe 37.500 0.000 42.500
Cu 37.500 0.000 45.000
Fe 37.500 0.000 47.500
Cu 37.500 0.000 50.000
Fe 37.500 0.000 52.500
Cu 37.500 0.000 55.000
Fe 37.500 2.500 0.000
Cu 37.500 2.500 2.500
Fe 37.500 2.500 5.000
Cu 37.500 2.500 7.500
Fe 37.500 2.500 10.000
Cu 37.500 2.500 12.500
Fe 37.500 2.500 15.000
Cu 37.500 2.500 17.500
Fe 37.500 2.500 20.000
Cu 37.500 2.500 22.500
Fe 37.500 2.500 25.000
Cu 37.500 2.500 27.500
Fe 37.500 2.500 30.000
Cu 37.500 2.500 32.500
Fe 37.500 2.500 35.000
Cu 37.500 2.500 37.500
Fe 37.500 2.500 40.000
Cu 37.500 2.500 42.500
Fe 37.500 2.500 45.000
Cu 37.500 2.500 47.500
Fe 37.500 2.500 50.000
Cu 37.500 2.500 52.500
Fe 37.500 2.500 55.000
Cu 37.500 5.000 0.000
Fe 37.500 5.000 2.500
Cu 37.500 5.000 5.000
Fe 37.500 5.000 7.500
Cu 37.500 5.000 10.000
Fe 37.500 5.000 12.500
Cu 37.500 5.000 15.000
Fe 37.500 5.000 17.500
Cu 37.500 5.000 20.000
Fe 37.500 5.000 22.500
Cu 37.500 5.000 25.000
Fe 37.500 5.000 27.500
Cu 37.500 5.000 30.000
Fe 37.500 5.000 32.500
Cu 37.500 5.000 35.000
Fe 37.500 5.000 37.500
Cu 37.500 5.000 40.000
Fe 37.500 5.000 42.500
Cu 37.500 5.000 45.000
Fe 37.500 5.000 47.500
Cu 37.500 5.000 50.000
Fe 37.500 5.000 52.500
Cu 37.500 5.000 55.000
Fe 37.500 7.500 0.000
Cu 37.500 7.500 2.500
Fe 37.500 7.500 5.000
Cu 37.500 7.500 7.500
Fe 37.500 7.500 10.000
Cu 37.500 7.500 12.500
Fe 37.500 7.500 15.000
Cu 37.500 7.500 17.500
Fe 37.500 7.500 20.000
Cu 37.500 7.500 22.500
Fe 37.500 7.500 25.000
Cu 37.500 7.500 27.500
Fe 37.500 7.500 30.000
Cu 37.500 7.500 32.500
Fe 37.500 7.500 35.000
Cu 37.500 7.500 37.500
Fe 37.500 7.500 40.000
Cu 37.500 7.500 42.500
Fe 37.500 7.500 45.000
Cu 37.500 7.500 47.500
Fe 37.500 7.500 50.000
Cu 37.500 7.500 52.500
Fe 37.500 7.500 55.000
Cu 37.500 10.000 0.000
Fe 37.500 10.000 2.500
Cu 37.500 10.000 5.000
Fe 37.500 10.000 7.500
Cu 37.500 10.000 10.000
Fe 37.500 10.000 12.500
Cu 37.500 10.000 15.000
Fe 37.500 10.000 17.500
Cu 37.500 10.000 20.000
Fe 37.500 10.000 22.500
Cu 37.500 10.000 25.000
Fe 37.500 10.000 27.500
Cu 37.500 10.000 30.000
Fe 37.500 10.000 32.500
Cu 37.500 10.000 35.000
Fe 37.500 10.000 37.500
Cu 37.500 10.000 40.000
Fe 37.500 10.000 42.500
Cu 37.500 10.000 45.000
Fe 37.500 10.000 47.500
Cu 37.500 10.000 50.000
Fe 37.500 10.000 52.500
Cu 37.500 10.000 55.000
Fe 37.500 12.500 0.000
Cu 37.500 12.500 2.500
Fe 37.500 12.500 5.000
Cu 37.500 12.500 7.500
Fe 37.500 12.500 10.000
Cu 37.500 12.500 12.500
Fe 37.500 12.500 15.000
Cu 37.500 12.500 17.500
Fe 37.500 12.500 20.000
Cu 37.500 12.500 22.500
Fe 37.500 12.500 25.000
Cu 37.500 12.500 27.500
Fe 37.500 12.500 30.000
Cu 37.500 12.500 32.500
Fe 37.500 12.500 35.000
Cu 37.500 12.500 37.500
Fe 37.500 12.500 40.000
Cu 37.500 12.500 42.500
Fe 37.500 12.500 45.000
Cu 37.500 12.500 47.500
Fe 37.500 12.500 50.000
Cu 37.500 12.500 52.500
Fe 37.500 12.500 55.000
Cu 37.500 15.000 0.000
Fe 37.500 15.000 2.500
Cu 37.500 15.000 5.000
Fe 37.500 15.000 7.500
Cu 37.500 15.000 10.000
Fe 37.500 15.000 12.500
Cu 37.500 15.000 15.000
Fe 37.500 15.000 17.500
Cu 37.500 15.000 20.000
Fe 37.500 15.000 22.500
Cu 37.500 15.000 25.000
Fe 37.500 15.000 27.500
Cu 37.500 15.000 30.000
Fe 37.500 15.000 32.500
Cu 37.500 15.000 35.000
Fe 37.500 15.000 37.500
Cu 37.500 15.000 40.000
Fe 37.500 15.000 42.500
Cu 37.500 15.000 45.000
Fe 37.500 15.000 47.500
Cu 37.500 15.000 50.000
Fe 37.500 15.000 52.500
Cu 37.500 15.000 55.000
Fe 37.500 17.500 0.000
Cu 37.500 17.500 2.500
Fe 37.500 17.500 5.000
Cu 37.500 17.500 7.500
Fe 37.500 17.500 10.000
Cu 37.500 17.500 12.500
Fe 37.500 17.500 15.000
Cu 37.500 17.500 17.500
Fe 37.500 17.500 20.000
Cu 37.500 17.500 22.500
Fe 37.500 17.500 25.000
Cu 37.500 17.500 27.500
Fe 37.500 17.500 30.000
Cu 37.500 17.500 32.500
Fe 37.500 17.500 35.000
Cu 37.500 17.500 37.500
Fe 37.500 17.500 40.000
Cu 37.500 17.500 42.500
Fe 37.500 17.500 45.000
Cu 37.500 17.500 47.500
Fe 37.500 17.500 50.000
Cu 37.500 17.500 52.500
Fe 37.500 17.500 55.000
Cu 37.500 20.000 0.000
Fe 37.500 20.000 2.500
Cu 37.500 20.000 5.000
Fe 37.500 20.000 7.500
Cu 37.500 20.000 10.000
Fe 37.500 20.000 12.500
Cu 37.500 20.000 15.000
Fe 37.500 20.000 17.500
Cu 37.500 20.000 20.000
Fe 37.500 20.000 22.500
Cu 37.500 20.000 25.000
Fe 37.500 20.000 27.500
Cu 37.500 20.000 30.000
Fe 37.500 20.000 32.500
Cu 37.500 20.000 35.000
Fe 37.500 20.000 37.500
Cu 37.500 20.000 40.000
Fe 37.500 20.000 42.500
Cu 37.500 20.000 45.000
Fe 37.500 20.000 47.500
Cu 37.500 20.000 50.000
Fe 37.500 20.000 52.500
Cu 37.500 20.000 55.000
Fe 37.500 22.500 0.000
Cu 37.500 22.500 2.500
Fe 37.500 22.500 5.000
Cu 37.500 22.500 7.500
Fe 37.500 22.500 10.000
Cu 37.500 22.500 12.500
Fe 37.500 22.500 15.000
Cu 37.500 22.500 17.500
Fe 37.500 22.500 20.000
Cu 37.500 22.500 22.500
Fe 37.500 22.500 25.000
Cu 37.500 22.500 27.500
Fe 37.500 22.500 30.000
Cu 37.500 22.500 32.500
Fe 37.500 22.500 35.000
Cu 37.500 22.500 37.500
Fe 37.500 22.500 40.000
Cu 37.500 22.500 42.500
Fe 37.500 22.500 45.000
Cu 37.500 22.500 47.500
Fe 37.500 22.500 50.000
Cu 37.500 22.500 52.500
Fe 37.500 22.500 55.000
Cu 37.500 25.000 0.000
Fe 37.500 25.000 2.500
Cu 37.500 25.000 5.000
Fe 37.500 25.000 7.500
Cu 37.500 25.000 10.000
Fe 37.500 25.000 12.500
Cu 37.500 25.000 15.000
Fe 37.500 25.000 17.500
Cu 37.500 25.000 20.000
Fe 37.500 25.000 22.500
Cu 37.500 25.000 25.000
Fe 37.500 25.000 27.500
Cu 37.500 25.000 30.000
Fe 37.500 25.000 32.500
Cu 37.500 25.000 35.000
Fe 37.500 25.000 37.500
Cu 37.500 25.000 40.000
Fe 37.500 25.000 42.500
Cu 37.500 25.000 45.000
Fe 37.500 25.000 47.500
Cu 37.500 25.000 50.000
Fe 37.500 25.000 52.500
Cu 37.500 25.000 55.000
Fe 37.500 27.500 0.000
Cu 37.500 27.500 2.500
Fe 37.500 27.500 5.000
Cu 37.500 27.500 7.500
Fe 37.500 27.500 10.000
Cu 37.500 27.500 12.500
Fe 37.500 27.500 15.000
Cu 37.500 27.500 17.500
Fe 37.500 27.500 20.000
Cu 37.500 27.500 22.500
Fe 37.500 27.500 25.000
Cu 37.500 27.500 27.500
Fe 37.500 27.500 30.000
Cu 37.500 27.500 32.500
Fe 37.500 27.500 35.000
Cu 37.500 27.500 37.500
Fe 37.500 27.500 40.000
Cu 37.500 27.500 42.500
Fe 37.500 27.500 45.000
Cu 37.500 27.500 47.500
Fe 37.500 27.500 50.000
Cu 37.500 27.500 52.500
Fe 37.500 27.500 55.000
Cu 37.500 30.000 0.000
Fe 37.500 30.000 2.500
Cu 37.500 30.000 5.000
Fe 37.500 30.000 7.500
Cu 37.500 30.000 10.000
Fe 37.500 30.000 12.500
Cu 37.500 30.000 15.000
Fe 37.500 30.000 17.500
Cu 37.500 30.000 20.000
Fe 37.500 30.000 22.500
Cu 37.500 30.000 25.000
Fe 37.500 30.000 27.500
Cu 37.500 30.000 30.000
Fe 37.500 30.000 32.500
Cu 37.500 30.000 35.000
Fe 37.500 30.000 37.500
Cu 37.500 30.000 40.000
Fe 37.500 30.000 42.500
Cu 37.500 30.000 45.000
Fe 37.500 30.000 47.500
Cu 37.500 30.000 50.000
Fe 37.500 30.000 52.500
Cu 37.500 30.000 55.000
Fe 37.500 32.500 0.000
Cu 37.500 32.500 2.500
Fe 37.500 32.500 5.000
Cu 37.500 32.500 7.500
Fe 37.500 32.500 10.000
Cu 37.500 32.500 12.500
Fe 37.500 32.500 15.000
Cu 37.500 32.500 17.500
Fe 37.500 32.500 20.000
Cu 37.500 32.500 22.500
Fe 37.500 32.500 25.000
Cu 37.500 32.500 27.500
Fe 37.500 32.500 30.000
Cu 37.500 32.500 32.500
Fe 37.500 32.500 35.000
Cu 37.500 32.500 37.500
Fe 37.500 32.500 40.000
Cu 37.500 32.500 42.500
Fe 37.500 32.500 45.000
Cu 37.500 32.500 47.500
Fe 37.500 32.500 50.000
Cu 37.500 32.500 52.500
Fe 37.500 32.500 55.000
Cu 37.500 35.000 0.000
Fe 37.500 35.000 2.500
Cu 37.500 35.000 5.000
Fe 37.500 35.000 7.500
Cu 37.500 35.000 10.000
Fe 37.500 35.000 12.500
Cu 37.500 35.000 15.000
Fe 37.500 35.000 17.500
Cu 37.500 35.000 20.000
Fe 37.500 35.000 22.500
Cu 37.500 35.000 25.000
Fe 37.500 35.000 27.500
Cu 37.500 35.000 30.000
Fe 37.500 35.000 32.500
Cu 37.500 35.000 35.000
Fe 37.500 35.000 37.500
Cu 37.500 35.000 40.000
Fe 37.500 35.000 42.500
Cu 37.500 35.000 45.000
Fe 37.500 35.000 47.500
Cu 37.500 35.000 50.000
Fe 37.500 35.000 52.500
Cu 37.500 35.000 55.000
Fe 37.500 37.500 0.000
Cu 37.500 37.500 2.500
Fe 37.500 37.500 5.000
Cu 37.500 37.500 7.500
Fe 37.500 37.500 10.000
Cu 37.500 37.500 12.500
Fe 37.500 37.500 15.000
Cu 37.500 37.500 17.500
Fe 37.500 37.500 20.000
Cu 37.500 37.500 22.500
Fe 37.500 37.500 25.000
Cu 37.500 37.500 27.500
Fe 37.500 37.500 30.000
Cu 37.500 37.500 32.500
Fe 37.500 37.500 35.000
Cu 37.500 37.500 37.500
Fe 37.500 37.500 40.000
Cu 37.500 37.500 42.500
Fe 37.500 37.500 45.000
Cu 37.500 37.500 47.500
Fe 37.500 37.500 50.000
Cu 37.500 37.500 52.500
Fe 37.500 37.500 55.000
Cu 37.500 40.000 0.000
Fe 37.500 40.000 2.500
Cu 37.500 40.000 5.000
Fe 37.500 40.000 7.500
Cu 37.500 40.000 10.000
Fe 37.500 40.000 12.500
Cu 37.500 40.000 15.000
Fe 37.500 40.000 17.500
Cu 37.500 40.000 20.000
Fe 37.500 40.000 22.500
Cu 37.500 40.000 25.000
Fe 37.500 40.000 27.500
Cu 37.500 40.000 30.000
Fe 37.500 40.000 32.500
Cu 37.500 40.000 35.000
Fe 37.500 40.000 37.500
Cu 37.500 40.000 40.000
Fe 37.500 40.000 42.500
Cu 37.500 40.000 45.000
Fe 37.500 40.000 47.500
Cu 37.500 40.000 50.000
Fe 37.500 40.000 52.500
Cu 37.500 40.000 55.000
Fe 37.500 42.500 0.000
Cu 37.500 42.500 2.500
Fe 37.500 42.500 5.000
Cu 37.500 42.500 7.500
Fe 37.500 42.500 10.000
Cu 37.500 42.500 12.500
Fe 37.500 42.500 15.000
Cu 37.500 42.500 17.500
Fe 37.500 42.500 20.000
Cu 37.500 42.500 22.500
Fe 37.500 42.500 25.000
Cu 37.500 42.500 27.500
Fe 37.500 42.500 30.000
Cu 37.500 42.500 32.500
Fe 37.500 42.500 35.000
Cu 37.500 42.500 37.500
Fe 37.500 42.500 40.000
Cu 37.500 42.500 42.500
Fe 37.500 42.500 45.000
Cu 37.500 42.500 47.500
Fe 37.500 42.500 50.000
Cu 37.500 42.500 52.500
Fe 37.500 42.500 55.000
Cu 37.500 45.000 0.000
Fe 37.500 45.000 2.500
Cu 37.500 45.000 5.000
Fe 37.500 45.000 7.500
Cu 37.500 45.000 10.000
Fe 37.500 45.000 12.500
Cu 37.500 45.000 15.000
Fe 37.500 45.000 17.500
Cu 37.500 45.000 20.000
Fe 37.500 45.000 22.500
Cu 37.500 45.000 25.000
Fe 37.500 45.000 27.500
Cu 37.500 45.000 30.000
Fe 37.500 45.000 32.500
Cu 37.500 45.000 35.000
Fe 37.500 45.000 37.500
Cu 37.500 45.000 40.000
Fe 37.500 45.000 42.500
Cu 37.500 45.000 45.000
Fe 37.500 45.000 47.500
Cu 37.500 45.000 50.000
Fe 37.500 45.000 52.500
Cu 37.500 45.000 55.000
Fe 37.500 47.500 0.000
Cu 37.500 47.500 2.500
Fe 37.500 47.500 5.000
Cu 37.500 47.500 7.500
Fe 37.500 47.500 10.000
Cu 37.500 47.500 12.500
Fe 37.500 47.500 15.000
Cu 37.500 47.500 17.500
Fe 37.500 47.500 20.000
Cu 37.500 47.500 22.500
Fe 37.500 47.500 25.000
Cu 37.500 47.500 27.500
Fe 37.500 47.500 30.000
Cu 37.500 47.500 32.500
Fe 37.500 47.500 35.000
Cu 37.500 47.500 37.500
Fe 37.500 47.500 40.000
Cu 37.500 47.500 42.500
Fe 37.500 47.500 45.000
Cu 37.500 47.500 47.500
Fe 37.500 47.500 50.000
Cu 37.500 47.500 52.500
Fe 37.500 47.500 55.000
Cu 37.500 50.000 0.000
Fe 37.500 50.000 2.500
Cu 37.500 50.000 5.000
Fe 37.500 50.000 7.500
Cu 37.500 50.000 10.000
Fe 37.500 50.000 12.500
Cu 37.500 50.000 15.000
Fe 37.500 50.000 17.500
Cu 37.500 50.000 20.000
Fe 37.500 50.000 22.500
Cu 37.500 50.000 25.000
Fe 37.500 50.000 27.500
Cu 37.500 50.000 30.000
Fe 37.500 50.000 32.500
Cu 37.500 50.000 35.000
Fe 37.500 50.000 37.500
Cu 37.500 50.000 40.000
Fe 37.500 50.000 42.500
Cu 37.500 50.000 45.000
Fe 37.500 50.000 47.500
Cu 37.500 50.000 50.000
Fe 37.500 50.000 52.500
Cu 37.500 50.000 55.000
Fe 37.500 52.500 0.000
Cu 37.500 52.500 2.500
Fe 37.500 52.500 5.000
Cu 37.500 52.500 7.500
Fe 37.500 52.500 10.000
Cu 37.500 52.500 12.500
Fe 37.500 52.500 15.000
Cu 37.500 52.500 17.500
Fe 37.500 52.500 20.000
Cu 37.500 52.500 22.500
Fe 37.500 52.500 25.000
Cu 37.500 52.500 27.500
Fe 37.500 52.500 30.000
Cu 37.500 52.500 32.500
Fe 37.500 52.500 35.000
Cu 37.500 52.500 37.500
Fe 37.500 52.500 40.000
Cu 37.500 52.500 42.500
Fe 37.500 52.500 45.000
Cu 37.500 52.500 47.500
Fe 37.500 52.500 50.000
Cu 37.500 52.500 52.500
Fe 37.500 52.500 55.000
Cu 37.500 55.000 0.000
Fe 37.500 55.000 2.500
Cu 37.500 55.000 5.000
Fe 37.500 55.000 7.500
Cu 37.500 55.000 10.000
Fe 37.500 55.000 12.500
Cu 37.500 55.000 15.000
Fe 37.500 55.000 17.500
Cu 37.500 55.000 20.000
Fe 37.500 55.000 22.500
Cu 37.500 55.000 25.000
Fe 37.500 55.000 27.500
Cu 37.500 55.000 30.000
Fe 37.500 55.000 32.500
Cu 37.500 55.000 35.000
Fe 37.500 55.000 37.500
Cu 37.500 55.000 40.000
Fe 37.500 55.000 42.500
Cu 37.500 55.000 45.000
Fe 37.500 55.000 47.500
Cu 37.500 55.000 50.000
Fe 37.500 55.000 52.500
Cu 37.500 55.000 55.000
Fe 40.000 0.000 0.000
Cu 40.000 0.000 2.500
Fe 40.000 0.000 5.000
Cu 40.000 0.000 7.500
Fe 40.000 0.000 10.000
Cu 40.000 0.000 12.500
Fe 40.000 0.000 15.000
Cu 40.000 0.000 17.500
Fe 40.000 0.000 20.000
Cu 40.000 0.000 22.500
Fe 40.000 0.000 25.000
Cu 40.000 0.000 27.500
Fe 40.000 0.000 30.000
Cu 40.000 0.000 32.500
Fe 40.000 0.000 35.000
Cu 40.000 0.000 37.500
Fe 40.000 0.000 40.000
Cu 40.000 0.000 42.500
Fe 40.000 0.000 45.000
Cu 40.000 0.000 47.500
Fe 40.000 0.000 50.000
Cu 40.000 0.000 52.500
Fe 40.000 0.000 55.000
Cu 40.000 2.500 0.000
Fe 40.000 2.500 2.500
Cu 40.000 2.500 5.000
Fe 40.000 2.500 7.500
Cu 40.000 2.500 10.000
Fe 40.000 2.500 12.500
Cu 40.000 2.500 15.000
Fe 40.000 2.500 17.500
Cu 40.000 2.500 20.000
Fe 40.000 2.500 22.500
Cu 40.000 2.500 25.000
Fe 40.000 2.500 27.500
Cu 40.000 2.500 30.000
Fe 40.000 2.500 32.500
Cu 40.000 2.500 35.000
Fe 40.000 2.500 37.500
Cu 40.000 2.500 40.000
Fe 40.000 2.500 42.500
Cu 40.000 2.500 45.000
Fe 40.000 2.500 47.500
Cu 40.000 2.500 50.000
Fe 40.000 2.500 52.500
Cu 40.000 2.500 55.000
Fe 40.000 5.000 0.000
Cu 40.000 5.000 2.500
Fe 40.000 5.000 5.000
Cu 40.000 5.000 7.500
Fe 40.000 5.000 10.000
Cu 40.000 5.000 12.500
Fe 40.000 5.000 15.000
Cu 40.000 5.000 17.500
Fe 40.000 5.000 20.000
Cu 40.000 5.000 22.500
Fe 40.000 5.000 25.000
Cu 40.000 5.000 27.500
Fe 40.000 5.000 30.000
Cu 40.000 5.000 32.500
Fe 40.000 5.000 35.000
Cu 40.000 5.000 37.500
Fe 40.000 5.000 40.000
Cu 40.000 5.000 42.500
Fe 40.000 5.000 45.000
Cu 40.000 5.000 47.500
Fe 40.000 5.000 50.000
Cu 40.000 5.000 52.500
Fe 40.000 5.000 55.000
Cu 40.000 7.500 0.000
Fe 40.000 7.500 2.500
Cu 40.000 7.500 5.000
Fe 40.000 7.500 7.500
Cu 40.000 7.500 10.000
Fe 40.000 7.500 12.500
Cu 40.000 7.500 15.000
Fe 40.000 7.500 17.500
Cu 40.000 7.500 20.000
Fe 40.000 7.500 22.500
Cu 40.000 7.500 25.000
Fe 40.000 7.500 27.500
Cu 40.000 7.500 30.000
Fe 40.000 7.500 32.500
Cu 40.000 7.500 35.000
Fe 40.000 7.500 37.500
Cu 40.000 7.500 40.000
Fe 40.000 7.500 42.500
Cu 40.000 7.500 45.000
Fe 40.000 7.500 47.500
Cu 40.000 7.500 50.000
Fe 40.000 7.500 52.500
Cu 40.000 7.500 55.000
Fe 40.000 10.000 0.000
Cu 40.000 10.000 2.500
Fe 40.000 10.000 5.000
Cu 40.000 10.000 7.500
Fe 40.000 10.000 10.000
Cu 40.000 10.000 12.500
Fe 40.000 10.000 15.000
Cu 40.000 10.000 17.500
Fe 40.000 10.000 20.000
Cu 40.000 10.000 22.500
Fe 40.000 10.000 25.000
Cu 40.000 10.000 27.500
Fe 40.000 10.000 30.000
Cu 40.000 10.000 32.500
Fe 40.000 10.000 35.000
Cu 40.000 10.000 37.500
Fe 40.000 10.000 40.000
Cu 40.000 10.000 42.500
Fe 40.000 10.000 45.000
Cu 40.000 10.000 47.500
Fe 40.000 10.000 50.000
Cu 40.000 10.000 52.500
Fe 40.000 10.000 55.000
Cu 40.000 12.500 0.000
Fe 40.000 12.500 2.500
Cu 40.000 12.500 5.000
Fe 40.000 12.500 7.500
Cu 40.000 12.500 10.000
Fe 40.000 12.500 12.500
Cu 40.000 12.500 15.000
Fe 40.000 12.500 17.500
Cu 40.000 12.500 20.000
Fe 40.000 12.500 22.500
Cu 40.000 12.500 25.000
Fe 40.000 12.500 27.500
Cu 40.000 12.500 30.000
Fe 40.000 12.500 32.500
Cu 40.000 12.500 35.000
Fe 40.000 12.500 37.500
Cu 40.000 12.500 40.000
Fe 40.000 12.500 42.500
Cu 40.000 12.500 45.000
Fe 40.000 12.500 47.500
Cu 40.000 12.500 50.000
Fe 40.000 12.500 52.500
Cu 40.000 12.500 55.000
Fe 40.000 15.000 0.000
Cu 40.000 15.000 2.500
Fe 40.000 15.000 5.000
Cu 40.000 15.000 7.500
Fe 40.000 15.000 10.000
Cu 40.000 15.000 12.500
Fe 40.000 15.000 15.000
Cu 40.000 15.000 17.500
Fe 40.000 15.000 20.000
Cu 40.000 15.000 22.500
Fe 40.000 15.000 25.000
Cu 40.000 15.000 27.500
Fe 40.000 15.000 30.000
Cu 40.000 15.000 32.500
Fe 40.000 15.000 35.000
Cu 40.000 15.000 37.500
Fe 40.000 15.000 40.000
Cu 40.000 15.000 42.500
Fe 40.000 15.000 45.000
Cu 40.000 15.000 47.500
Fe 40.000 15.000 50.000
Cu 40.000 15.000 52.500
Fe 40.000 15.000 55.000
Cu 40.000 17.500 0.000
Fe 40.000 17.500 2.500
Cu 40.000 17.500 5.000
Fe 40.000 17.500 7.500
Cu 40.000 17.500 10.000
Fe 40.000 17.500 12.500
Cu 40.000 17.500 15.000
Fe 40.000 17.500 17.500
Cu 40.000 17.500 20.000
Fe 40.000 17.500 22.500
Cu 40.000 17.500 25.000
Fe 40.000 17.500 27.500
Cu 40.000 17.500 30.000
Fe 40.000 17.500 32.500
Cu 40.000 17.500 35.000
Fe 40.000 17.500 37.500
Cu 40.000 17.500 40.000
Fe 40.000 17.500 42.500
Cu 40.000 17.500 45.000
Fe 40.000 17.500 47.500
Cu 40.000 17.500 50.000
Fe 40.000 17.500 52.500
Cu 40.000 17.500 55.000
Fe 40.000 20.000 0.000
Cu 40.000 20.000 2.500
Fe 40.000 20.000 5.000
Cu 40.000 20.000 7.500
Fe 40.000 20.000 10.000
Cu 40.000 20.000 12.500
Fe 40.000 20.000 15.000
Cu 40.000 20.000 17.500
Fe 40.000 20.000 20.000
Cu 40.000 20.000 22.500
Fe 40.000 20.000 25.000
Cu 40.000 20.000 27.500
Fe 40.000 20.000 30.000
Cu 40.000 20.000 32.500
Fe 40.000 20.000 35.000
Cu 40.000 20.000 37.500
Fe 40.000 20.000 40.000
Cu 40.000 20.000 42.500
Fe 40.000 20.000 45.000
Cu 40.000 20.000 47.500
Fe 40.000 20.000 50.000
Cu 40.000 20.000 52.500
Fe 40.000 20.000 55.000
Cu 40.000 22.500 0.000
Fe 40.000 22.500 2.500
Cu 40.000 22.500 5.000
Fe 40.000 22.500 7.500
Cu 40.000 22.500 10.000
Fe 40.000 22.500 12.500
Cu 40.000 22.500 15.000
Fe 40.000 22.500 17.500
Cu 40.000 22.500 20.000
Fe 40.000 22.500 22.500
Cu 40.000 22.500 25.000
Fe 40.000 22.500 27.500
Cu 40.000 22.500 30.000
Fe 40.000 22.500 32.500
Cu 40.000 22.500 35.000
Fe 40.000 22.500 37.500
Cu 40.000 22.500 40.000
Fe 40.000 22.500 42.500
Cu 40.000 22.500 45.000
Fe 40.000 22.500 47.500
Cu 40.000 22.500 50.000
Fe 40.000 22.500 52.500
Cu 40.000 22.500 55.000
Fe 40.000 25.000 0.000
Cu 40.000 25.000 2.500
Fe 40.000 25.000 5.000
Cu 40.000 25.000 7.500
Fe 40.000 25.000 10.000
Cu 40.000 25.000 12.500
Fe 40.000 25.000 15.000
Cu 40.000 25.000 17.500
Fe 40.000 25.000 20.000
Cu 40.000 25.000 22.500
Fe 40.000 25.000 25.000
Cu 40.000 25.000 27.500
Fe 40.000 25.000 30.000
Cu 40.000 25.000 32.500
Fe 40.000 25.000 35.000
Cu 40.000 25.000 37.500
Fe 40.000 25.000 40.000
Cu 40.000 25.000 42.500
Fe 40.000 25.000 45.000
Cu 40.000 25.000 47.500
Fe 40.000 25.000 50.000
Cu 40.000 25.000 52.500
Fe 40.000 25.000 55.000
Cu 40.000 27.500 0.000
Fe 40.000 27.500 2.500
Cu 40.000 27.500 5.000
Fe 40.000 27.500 7.500
Cu 40.000 27.500 10.000
Fe 40.000 27.500 12.500
Cu 40.000 27.500 15.000
Fe 40.000 27.500 17.500
Cu 40.000 27.500 20.000
Fe 40.000 27.500 22.500
Cu 40.000 27.500 25.000
Fe 40.000 27.500 27.500
Cu 40.000 27.500 30.000
Fe 40.000 27.500 32.500
Cu 40.000 27.500 35.000
Fe 40.000 27.500 37.500
Cu 40.000 27.500 40.000
Fe 40.000 27.500 42.500
Cu 40.000 27.500 45.000
Fe 40.000 27.500 47.500
Cu 40.000 27.500 50.000
Fe 40.000 27.500 52.500
Cu 40.000 27.500 55.000
Fe 40.000 30.000 0.000
Cu 40.000 30.000 2.500
Fe 40.000 30.000 5.000
Cu 40.000 30.000 7.500
Fe 40.000 30.000 10.000
Cu 40.000 30.000 12.500
Fe 40.000 30.000 15.000
Cu 40.000 30.000 17.500
Fe 40.000 30.000 20.000
Cu 40.000 30.000 22.500
Fe 40.000 30.000 25.000
Cu 40.000 30.000 27.500
Fe 40.000 30.000 30.000
Cu 40.000 30.000 32.500
Fe 40.000 30.000 35.000
Cu 40.000 30.000 37.500
Fe 40.000 30.000 40.000
Cu 40.000 30.000 42.500
Fe 40.000 30.000 45.000
Cu 40.000 30.000 47.500
Fe 40.000 30.000 50.000
Cu 40.000 30.000 52.500
Fe 40.000 30.000 55.000
Cu 40.000 32.500 0.000
Fe 40.000 32.500 2.500
Cu 40.000 32.500 5.000
Fe 40.000 32.500 7.500
Cu 40.000 32.500 10.000
Fe 40.000 32.500 12.500
Cu 40.000 32.500 15.000
Fe 40.000 32.500 17.500
Cu 40.000 32.500 20.000
Fe 40.000 32.500 22.500
Cu 40.000 32.500 25.000
Fe 40.000 32.500 27.500
Cu 40.000 32.500 30.000
Fe 40.000 32.500 32.500
Cu 40.000 32.500 35.000
Fe 40.000 32.500 37.500
Cu 40.000 32.500 40.000
Fe 40.000 32.500 42.500
Cu 40.000 32.500 45.000
Fe 40.000 32.500 47.500
Cu 40.000 32.500 50.000
Fe 40.000 32.500 52.500
Cu 40.000 32.500 55.000
Fe 40.000 35.000 0.000
Cu 40.000 35.000 2.500
Fe 40.000 35.000 5.000
Cu 40.000 35.000 7.500
Fe 40.000 35.000 10.000
Cu 40.000 35.000 12.500
Fe 40.000 35.000 15.000
Cu 40.000 35.000 17.500
Fe 40.000 35.000 20.000
Cu 40.000 35.000 22.500
Fe 40.000 35.000 25.000
Cu 40.000 35.000 27.500
Fe 40.000 35.000 30.000
Cu 40.000 35.000 32.500
Fe 40.000 35.000 35.000
Cu 40.000 35.000 37.500
Fe 40.000 35.000 40.000
Cu 40.000 35.000 42.500
Fe 40.000 35.000 45.000
Cu 40.000 35.000 47.500
Fe 40.000 35.000 50.000
Cu 40.000 35.000 52.500
Fe 40.000 35.000 55.000
Cu 40.000 37.500 0.000
Fe 40.000 37.500 2.500
Cu 40.000 37.500 5.000
Fe 40.000 37.500 7.500
Cu 40.000 37.500 10.000
Fe 40.000 37.500 12.500
Cu 40.000 37.500 15.000
Fe 40.000 37.500 17.500
Cu 40.000 37.500 20.000
Fe 40.000 37.500 22.500
Cu 40.000 37.500 25.000
Fe 40.000 37.500 27.500
Cu 40.000 37.500 30.000
Fe 40.000 37.500 32.500
Cu 40.000 37.500 35.000
Fe 40.000 37.500 37.500
Cu 40.000 37.500 40.000
Fe 40.000 37.500 42.500
Cu 40.000 37.500 45.000
Fe 40.000 37.500 47.500
Cu 40.000 37.500 50.000
Fe 40.000 37.500 52.500
Cu 40.000 37.500 55.000
Fe 40.000 40.000 0.000
Cu 40.000 40.000 2.500
Fe 40.000 40.000 5.000
Cu 40.000 40.000 7.500
Fe 40.000 40.000 10.000
Cu 40.000 40.000 12.500
Fe 40.000 40.000 15.000
Cu 40.000 40.000 17.500
Fe 40.000 40.000 20.000
Cu 40.000 40.000 22.500
Fe 40.000 40.000 25.000
Cu 40.000 40.000 27.500
Fe 40.000 40.000 30.000
Cu 40.000 40.000 32.500
Fe 40.000 40.000 35.000
Cu 40.000 40.000 37.500
Fe 40.000 40.000 40.000
Cu 40.000 40.000 42.500
Fe 40.000 40.000 45.000
Cu 40.000 40.000 47.500
Fe 40.000 40.000 50.000
Cu 40.000 40.000 52.500
Fe 40.000 40.000 55.000
Cu 40.000 42.500 0.000
Fe 40.000 42.500 2.500
Cu 40.000 42.500 5.000
Fe 40.000 42.500 7.500
Cu 40.000 42.500 10.000
Fe 40.000 42.500 12.500
Cu 40.000 42.500 15.000
Fe 40.000 42.500 17.500
Cu 40.000 42.500 20.000
Fe 40.000 42.500 22.500
Cu 40.000 42.500 25.000
Fe 40.000 42.500 27.500
Cu 40.000 42.500 30.000
Fe 40.000 42.500 32.500
Cu 40.000 42.500 35.000
Fe 40.000 42.500 37.500
Cu 40.000 42.500 40.000
Fe 40.000 42.500 42.500
Cu 40.000 42.500 45.000
Fe 40.000 42.500 47.500
Cu 40.000 42.500 50.000
Fe 40.000 42.500 52.500
Cu 40.000 42.500 55.000
Fe 40.000 45.000 0.000
Cu 40.000 45.000 2.500
Fe 40.000 45.000 5.000
Cu 40.000 45.000 7.500
Fe 40.000 45.000 10.000
Cu 40.000 45.000 12.500
Fe 40.000 45.000 15.000
Cu 40.000 45.000 17.500
Fe 40.000 45.000 20.000
Cu 40.000 45.000 22.500
Fe 40.000 45.000 25.000
Cu 40.000 45.000 27.500
Fe 40.000 45.000 30.000
Cu 40.000 45.000 32.500
Fe 40.000 45.000 35.000
Cu 40.000 45.000 37.500
Fe 40.000 45.000 40.000
Cu 40.000 45.000 42.500
Fe 40.000 45.000 45.000
Cu 40.000 45.000 47.500
Fe 40.000 45.000 50.000
Cu 40.000 45.000 52.500
Fe 40.000 45.000 55.000
Cu 40.000 47.500 0.000
Fe 40.000 47.500 2.500
Cu 40.000 47.500 5.000
Fe 40.000 47.500 7.500
Cu 40.000 47.500 10.000
Fe 40.000 47.500 12.500
Cu 40.000 47.500 15.000
Fe 40.000 47.500 17.500
Cu 40.000 47.500 20.000
Fe 40.000 47.500 22.500
Cu 40.000 47.500 25.000
Fe 40.000 47.500 27.500
Cu 40.000 47.500 30.000
Fe 40.000 47.500 32.500
Cu 40.000 47.500 35.000
Fe 40.000 47.500 37.500
Cu 40.000 47.500 40.000
Fe 40.000 47.500 42.500
Cu 40.000 47.500 45.000
Fe 40.000 47.500 47.500
Cu 40.000 47.500 50.000
Fe 40.000 47.500 52.500
Cu 40.000 47.500 55.000
Fe 40.000 50.000 0.000
Cu 40.000 50.000 2.500
Fe 40.000 50.000 5.000
Cu 40.000 50.000 7.500
Fe 40.000 50.000 10.000
Cu 40.000 50.000 12.500
Fe 40.000 50.000 15.000
Cu 40.000 50.000 17.500
Fe 40.000 50.000 20.000
Cu 40.000 50.000 22.500
Fe 40.000 50.000 25.000
Cu 40.000 50.000 27.500
Fe 40.000 50.000 30.000
Cu 40.000 50.000 32.500
Fe 40.000 50.000 35.000
Cu 40.000 50.000 37.500
Fe 40.000 50.000 40.000
Cu 40.000 50.000 42.500
Fe 40.000 50.000 45.000
Cu 40.000 50.000 47.500
Fe 40.000 50.000 50.000
Cu 40.000 50.000 52.500
Fe 40.000 50.000 55.000
Cu 40.000 52.500 0.000
Fe 40.000 52.500 2.500
Cu 40.000 52.500 5.000
Fe 40.000 52.500 7.500
Cu 40.000 52.500 10.000
Fe 40.000 52.500 12.500
Cu 40.000 52.500 15.000
Fe 40.000 52.500 17.500
Cu 40.000 52.500 20.000
Fe 40.000 52.500 22.500
Cu 40.000 52.500 25.000
Fe 40.000 52.500 27.500
Cu 40.000 52.500 30.000
Fe 40.000 52.500 32.500
Cu 40.000 52.500 35.000
Fe 40.000 52.500 37.500
Cu 40.000 52.500 40.000
Fe 40.000 52.500 42.500
Cu 40.000 52.500 45.000
Fe 40.000 52.500 47.500
Cu 40.000 52.500 50.000
Fe 40.000 52.500 52.500
Cu 40.000 52.500 55.000
Fe 40.000 55.000 0.000
Cu 40.000 55.000 2.500
Fe 40.000 55.000 5.000
Cu 40.000 55.000 7.500
Fe 40.000 55.000 10.000
Cu 40.000 55.000 12.500
Fe 40.000 55.000 15.000
Cu 40.000 55.000 17.500
Fe 40.000 55.000 20.000
Cu 40.000 55.000 22.500
Fe 40.000 55.000 25.000
Cu 40.000 55.000 27.500
Fe 40.000 55.000 30.000
Cu 40.000 55.000 32.500
Fe 40.000 55.000 35.000
Cu 40.000 55.000 37.500
Fe 40.000 55.000 40.000
Cu 40.000 55.000 42.500
Fe 40.000 55.000 45.000
Cu 40.000 55.000 47.500
Fe 40.000 55.000 50.000
Cu 40.000 55.000 52.500
Fe 40.000 55.000 55.000
Cu 42.500 0.000 0.000
Fe 42.500 0.000 2.500
Cu 42.500 0.000 5.000
Fe 42.500 0.000 7.500
Cu 42.500 0.000 10.000
Fe 42.500 0.000 12.500
Cu 42.500 0.000 15.000
Fe 42.500 0.000 17.500
Cu 42.500 0.000 20.000
Fe 42.500 0.000 22.500
Cu 42.500 0.000 25.000
Fe 42.500 0.000 27.500
Cu 42.500 0.000 30.000
Fe 42.500 0.000 32.500
Cu 42.500 0.000 35.000
Fe 42.500 0.000 37.500
Cu 42.500 0.000 40.000
Fe 42.500 0.000 42.500
Cu 42.500 0.000 45.000
Fe 42.500 0.000 47.500
Cu 42.500 0.000 50.000
Fe 42.500 0.000 52.500
Cu 42.500 0.000 55.000
Fe 42.500 2.500 0.000
Cu 42.500 2.500 2.500
Fe 42.500 2.500 5.000
Cu 42.500 2.500 7.500
Fe 42.500 2.500 10.000
Cu 42.500 2.500 12.500
Fe 42.500 2.500 15.000
Cu 42.500 2.500 17.500
Fe 42.500 2.500 20.000
Cu 42.500 2.500 22.500
Fe 42.500 2.500 25.000
Cu 42.500 2.500 27.500
Fe 42.500 2.500 30.000
Cu 42.500 2.500 32.500
Fe 42.500 2.500 35.000
Cu 42.500 2.500 37.500
Fe 42.500 2.500 40.000
Cu 42.500 2.500 42.500
Fe 42.500 2.500 45.000
Cu 42.500 2.500 47.500
Fe 42.500 2.500 50.000
Cu 42.500 2.500 52.500
Fe 42.500 2.500 55.000
Cu 42.500 5.000 0.000
Fe 42.500 5.000 2.500
Cu 42.500 5.000 5.000
Fe 42.500 5.000 7.500
Cu 42.500 5.000 10.000
Fe 42.500 5.000 12.500
Cu 42.500 5.000 15.000
Fe 42.500 5.000 17.500
Cu 42.500 5.000 20.000
Fe 42.500 5.000 22.500
Cu 42.500 5.000 25.000
Fe 42.500 5.000 27.500
Cu 42.500 5.000 30.000
Fe 42.500 5.000 32.500
Cu 42.500 5.000 35.000
Fe 42.500 5.000 37.500
Cu 42.500 5.000 40.000
Fe 42.500 5.000 42.500
Cu 42.500 5.000 45.000
Fe 42.500 5.000 47.500
Cu 42.500 5.000 50.000
Fe 42.500 5.000 52.500
Cu 42.500 5.000 55.000
Fe 42.500 7.500 0.000
Cu 42.500 7.500 2.500
Fe 42.500 7.500 5.000
Cu 42.500 7.500 7.500
Fe 42.500 7.500 10.000
Cu 42.500 7.500 12.500
Fe 42.500 7.500 15.000
Cu 42.500 7.500 17.500
Fe 42.500 7.500 20.000
Cu 42.500 7.500 22.500
Fe 42.500 7.500 25.000
Cu 42.500 7.500 27.500
Fe 42.500 7.500 30.000
Cu 42.500 7.500 32.500
Fe 42.500 7.500 35.000
Cu 42.500 7.500 37.500
Fe 42.500 7.500 40.000
Cu 42.500 7.500 42.500
Fe 42.500 7.500 45.000
Cu 42.500 7.500 47.500
Fe 42.500 7.500 50.000
Cu 42.500 7.500 52.500
Fe 42.500 7.500 55.000
Cu 42.500 10.000 0.000
Fe 42.500 10.000 2.500
Cu 42.500 10.000 5.000
Fe 42.500 10.000 7.500
Cu 42.500 10.000 10.000
Fe 42.500 10.000 12.500
Cu 42.500 10.000 15.000
Fe 42.500 10.000 17.500
Cu 42.500 10.000 20.000
Fe 42.500 10.000 22.500
Cu 42.500 10.000 25.000
Fe 42.500 10.000 27.500
Cu 42.500 10.000 30.000
Fe 42.500 10.000 32.500
Cu 42.500 10.000 35.000
Fe 42.500 10.000 37.500
Cu 42.500 10.000 40.000
Fe 42.500 10.000 42.500
Cu 42.500 10.000 45.000
Fe 42.500 10.000 47.500
Cu 42.500 10.000 50.000
Fe 42.500 10.000 52.500
Cu 42.500 10.000 55.000
Fe 42.500 12.500 0.000
Cu 42.500 12.500 2.500
Fe 42.500 12.500 5.000
Cu 42.500 12.500 7.500
Fe 42.500 12.500 10.000
Cu 42.500 12.500 12.500
Fe 42.500 12.500 15.000
Cu 42.500 12.500 17.500
Fe 42.500 12.500 20.000
Cu 42.500 12.500 22.500
Fe 42.500 12.500 25.000
Cu 42.500 12.500 27.500
Fe 42.500 12.500 30.000
Cu 42.500 12.500 32.500
Fe 42.500 12.500 35.000
Cu 42.500 12.500 37.500
Fe 42.500 12.500 40.000
Cu 42.500 12.500 42.500
Fe 42.500 12.500 45.000
Cu 42.500 12.500 47.500
Fe 42.500 12.500 50.000
Cu 42.500 12.500 52.500
Fe 42.500 12.500 55.000
Cu 42.500 15.000 0.000
Fe 42.500 15.000 2.500
Cu 42.500 15.000 5.000
Fe 42.500 15.000 7.500
Cu 42.500 15.000 10.000
Fe 42.500 15.000 12.500
Cu 42.500 15.000 15.000
Fe 42.500 15.000 17.500
Cu 42.500 15.000 20.000
Fe 42.500 15.000 22.500
Cu 42.500 15.000 25.000
Fe 42.500 15.000 27.500
Cu 42.500 15.000 30.000
Fe 42.500 15.000 32.500
Cu 42.500 15.000 35.000
Fe 42.500 15.000 37.500
Cu 42.500 15.000 40.000
Fe 42.500 15.000 42.500
Cu 42.500 15.000 45.000
Fe 42.500 15.000 47.500
Cu 42.500 15.000 50.000
Fe 42.500 15.000 52.500
Cu 42.500 15.000 55.000
Fe 42.500 17.500 0.000
Cu 42.500 17.500 2.500
Fe 42.500 17.500 5.000
Cu 42.500 17.500 7.500
Fe 42.500 17.500 10.000
Cu 42.500 17.500 12.500
Fe 42.500 17.500 15.000
Cu 42.500 17.500 17.500
Fe 42.500 17.500 20.000
Cu 42.500 17.500 22.500
Fe 42.500 17.500 25.000
Cu 42.500 17.500 27.500
Fe 42.500 17.500 30.000
Cu 42.500 17.500 32.500
Fe 42.500 17.500 35.000
Cu 42.500 17.500 37.500
Fe 42.500 17.500 40.000
Cu 42.500 17.500 42.500
Fe 42.500 17.500 45.000
Cu 42.500 17.500 47.500
Fe 42.500 17.500 50.000
Cu 42.500 17.500 52.500
Fe 42.500 17.500 55.000
Cu 42.500 20.000 0.000
Fe 42.500 20.000 2.500
Cu 42.500 20.000 5.000
Fe 42.500 20.000 7.500
Cu 42.500 20.000 10.000
Fe 42.500 20.000 12.500
Cu 42.500 20.000 15.000
Fe 42.500 20.000 17.500
Cu 42.500 20.000 20.000
Fe 42.500 20.000 22.500
Cu 42.500 20.000 25.000
Fe 42.500 20.000 27.500
Cu 42.500 20.000 30.000
Fe 42.500 20.000 32.500
Cu 42.500 20.000 35.000
Fe 42.500 20.000 37.500
Cu 42.500 20.000 40.000
Fe 42.500 20.000 42.500
Cu 42.500 20.000 45.000
Fe 42.500 20.000 47.500
Cu 42.500 20.000 50.000
Fe 42.500 20.000 52.500
Cu 42.500 20.000 55.000
Fe 42.500 22.500 0.000
Cu 42.500 22.500 2.500
Fe 42.500 22.500 5.000
Cu 42.500 22.500 7.500
Fe 42.500 22.500 10.000
Cu 42.500 22.500 12.500
Fe 42.500 22.500 15.000
Cu 42.500 22.500 17.500
Fe 42.500 22.500 20.000
Cu 42.500 22.500 22.500
Fe 42.500 22.500 25.000
Cu 42.500 22.500 27.500
Fe 42.500 22.500 30.000
Cu 42.500 22.500 32.500
Fe 42.500 22.500 35.000
Cu 42.500 22.500 37.500
Fe 42.500 22.500 40.000
Cu 42.500 22.500 42.500
Fe 42.500 22.500 45.000
Cu 42.500 22.500 47.500
Fe 42.500 22.500 50.000
Cu 42.500 22.500 52.500
Fe 42.500 22.500 55.000
Cu 42.500 25.000 0.000
Fe 42.500 25.000 2.500
Cu 42.500 25.000 5.000
Fe 42.500 25.000 7.500
Cu 42.500 25.000 10.000
Fe 42.500 25.000 12.500
Cu 42.500 25.000 15.000
Fe 42.500 25.000 17.500
Cu 42.500 25.000 20.000
Fe 42.500 25.000 22.500
Cu 42.500 25.000 25.000
Fe 42.500 25.000 27.500
Cu 42.500 25.000 30.000
Fe 42.500 25.000 32.500
Cu 42.500 25.000 35.000
Fe 42.500 25.000 37.500
Cu 42.500 25.000 40.000
Fe 42.500 25.000 42.500
Cu 42.500 25.000 45.000
Fe 42.500 25.000 47.500
Cu 42.500 25.000 50.000
Fe 42.500 25.000 52.500
Cu 42.500 25.000 55.000
Fe 42.500 27.500 0.000
Cu 42.500 27.500 2.500
Fe 42.500 27.500 5.000
Cu 42.500 27.500 7.500
Fe 42.500 27.500 10.000
Cu 42.500 27.500 12.500
Fe 42.500 27.500 15.000
Cu 42.500 27.500 17.500
Fe 42.500 27.500 20.000
Cu 42.500 27.500 22.500
Fe 42.500 27.500 25.000
Cu 42.500 27.500 27.500
Fe 42.500 27.500 30.000
Cu 42.500 27.500 32.500
Fe 42.500 27.500 35.000
Cu 42.500 27.500 37.500
Fe 42.500 27.500 40.000
Cu 42.500 27.500 42.500
Fe 42.500 27.500 45.000
Cu 42.500 27.500 47.500
Fe 42.500 27.500 50.000
Cu 42.500 27.500 52.500
Fe 42.500 27.500 55.000
Cu 42.500 30.000 0.000
Fe 42.500 30.000 2.500
Cu 42.500 30.000 5.000
Fe 42.500 30.000 7.500
Cu 42.500 30.000 10.000
Fe 42.500 30.000 12.500
Cu 42.500 30.000 15.000
Fe 42.500 30.000 17.500
Cu 42.500 30.000 20.000
Fe 42.500 30.000 22.500
Cu 42.500 30.000 25.000
Fe 42.500 30.000 27.500
Cu 42.500 30.000 30.000
Fe 42.500 30.000 32.500
Cu 42.500 30.000 35.000
Fe 42.500 30.000 37.500
Cu 42.500 30.000 40.000
Fe 42.500 30.000 42.500
Cu 42.500 30.000 45.000
Fe 42.500 30.000 47.500
Cu 42.500 30.000 50.000
Fe 42.500 30.000 52.500
Cu 42.500 30.000 55.000
Fe 42.500 32.500 0.000
Cu 42.500 32.500 2.500
Fe 42.500 32.500 5.000
Cu 42.500 32.500 7.500
Fe 42.500 32.500 10.000
Cu 42.500 32.500 12.500
Fe 42.500 32.500 15.000
Cu 42.500 32.500 17.500
Fe 42.500 32.500 20.000
Cu 42.500 32.500 22.500
Fe 42.500 32.500 25.000
Cu 42.500 32.500 27.500
Fe 42.500 32.500 30.000
Cu 42.500 32.500 32.500
Fe 42.500 32.500 35.000
Cu 42.500 32.500 37.500
Fe 42.500 32.500 40.000
Cu 42.500 32.500 42.500
Fe 42.500 32.500 45.000
Cu 42.500 32.500 47.500
Fe 42.500 32.500 50.000
Cu 42.500 32.500 52.500
Fe 42.500 32.500 55.000
Cu 42.500 35.000 0.000
Fe 42.500 35.000 2.500
Cu 42.500 35.000 5.000
Fe 42.500 35.000 7.500
Cu 42.500 35.000 10.000
Fe 42.500 35.000 12.500
Cu 42.500 35.000 15.000
Fe 42.500 35.000 17.500
Cu 42.500 35.000 20.000
Fe 42.500 35.000 22.500
Cu 42.500 35.000 25.000
Fe 42.500 35.000 27.500
Cu 42.500 35.000 30.000
Fe 42.500 35.000 32.500
Cu 42.500 35.000 35.000
Fe 42.500 35.000 37.500
Cu 42.500 35.000 40.000
Fe 42.500 35.000 42.500
Cu 42.500 35.000 45.000
Fe 42.500 35.000 47.500
Cu 42.500 35.000 50.000
Fe 42.500 35.000 52.500
Cu 42.500 35.000 55.000
Fe 42.500 37.500 0.000
Cu 42.500 37.500 2.500
Fe 42.500 37.500 5.000
Cu 42.500 37.500 7.500
Fe 42.500 37.500 10.000
Cu 42.500 37.500 12.500
Fe 42.500 37.500 15.000
Cu 42.500 37.500 17.500
Fe 42.500 37.500 20.000
Cu 42.500 37.500 22.500
Fe 42.500 37.500 25.000
Cu 42.500 37.500 27.500
Fe 42.500 37.500 30.000
Cu 42.500 37.500 32.500
Fe 42.500 37.500 35.000
Cu 42.500 37.500 37.500
Fe 42.500 37.500 40.000
Cu 42.500 37.500 42.500
Fe 42.500 37.500 45.000
Cu 42.500 37.500 47.500
Fe 42.500 37.500 50.000
Cu 42.500 37.500 52.500
Fe 42.500 37.500 55.000
Cu 42.500 40.000 0.000
Fe 42.500 40.000 2.500
Cu 42.500 40.000 5.000
Fe 42.500 40.000 7.500
Cu 42.500 40.000 10.000
Fe 42.500 40.000 12.500
Cu 42.500 40.000 15.000
Fe 42.500 40.000 17.500
Cu 42.500 40.000 20.000
Fe 42.500 40.000 22.500
Cu 42.500 40.000 25.000
Fe 42.500 40.000 27.500
Cu 42.500 40.000 30.000
Fe 42.500 40.000 32.500
Cu 42.500 40.000 35.000
Fe 42.500 40.000 37.500
Cu 42.500 40.000 40.000
Fe 42.500 40.000 42.500
Cu 42.500 40.000 45.000
Fe 42.500 40.000 47.500
Cu 42.500 40.000 50.000
Fe 42.500 40.000 52.500
Cu 42.500 40.000 55.000
Fe 42.500 42.500 0.000
Cu 42.500 42.500 2.500
Fe 42.500 42.500 5.000
Cu 42.500 42.500 7.500
Fe 42.500 42.500 10.000
Cu 42.500 42.500 12.500
Fe 42.500 42.500 15.000
Cu 42.500 42.500 17.500
Fe 42.500 42.500 20.000
Cu 42.500 42.500 22.500
Fe 42.500 42.500 25.000
Cu 42.500 42.500 27.500
Fe 42.500 42.500 30.000
Cu 42.500 42.500 32.500
Fe 42.500 42.500 35.000
Cu 42.500 42.500 37.500
Fe 42.500 42.500 40.000
Cu 42.500 42.500 42.500
Fe 42.500 42.500 45.000
Cu 42.500 42.500 47.500
Fe 42.500 42.500 50.000
Cu 42.500 42.500 52.500
Fe 42.500 42.500 55.000
Cu 42.500 45.000 0.000
Fe 42.500 45.000 2.500
Cu 42.500 45.000 5.000
Fe 42.500 45.000 7.500
Cu 42.500 45.000 10.000
Fe 42.500 45.000 12.500
Cu 42.500 45.000 15.000
Fe 42.500 45.000 17.500
Cu 42.500 45.000 20.000
Fe 42.500 45.000 22.500
Cu 42.500 45.000 25.000
Fe 42.500 45.000 27.500
Cu 42.500 45.000 30.000
Fe 42.500 45.000 32.500
Cu 42.500 45.000 35.000
Fe 42.500 45.000 37.500
Cu 42.500 45.000 40.000
Fe 42.500 45.000 42.500
Cu 42.500 45.000 45.000
Fe 42.500 45.000 47.500
Cu 42.500 45.000 50.000
Fe 42.500 45.000 52.500
Cu 42.500 45.000 55.000
Fe 42.500 47.500 0.000
Cu 42.500 47.500 2.500
Fe 42.500 47.500 5.000
Cu 42.500 47.500 7.500
Fe 42.500 47.500 10.000
Cu 42.500 47.500 12.500
Fe 42.500 47.500 15.000
Cu 42.500 47.500 17.500
Fe 42.500 47.500 20.000
Cu 42.500 47.500 22.500
Fe 42.500 47.500 25.000
Cu 42.500 47.500 27.500
Fe 42.500 47.500 30.000
Cu 42.500 47.500 32.500
Fe 42.500 47.500 35.000
Cu 42.500 47.500 37.500
Fe 42.500 47.500 40.000
Cu 42.500 47.500 42.500
Fe 42.500 47.500 45.000
Cu 42.500 47.500 47.500
Fe 42.500 47.500 50.000
Cu 42.500 47.500 52.500
Fe 42.500 47.500 55.000
Cu 42.500 50.000 0.000
Fe 42.500 50.000 2.500
Cu 42.500 50.000 5.000
Fe 42.500 50.000 7.500
Cu 42.500 50.000 10.000
Fe 42.500 50.000 12.500
Cu 42.500 50.000 15.000
Fe 42.500 50.000 17.500
Cu 42.500 50.000 20.000
Fe 42.500 50.000 22.500
Cu 42.500 50.000 25.000
Fe 42.500 50.000 27.500
Cu 42.500 50.000 30.000
Fe 42.500 50.000 32.500
Cu 42.500 50.000 35.000
Fe 42.500 50.000 37.500
Cu 42.500 50.000 40.000
Fe 42.500 50.000 42.500
Cu 42.500 50.000 45.000
Fe 42.500 50.000 47.500
Cu 42.500 50.000 50.000
Fe 42.500 50.000 52.500
Cu 42.500 50.000 55.000
Fe 42.500 52.500 0.000
Cu 42.500 52.500 2.500
Fe 42.500 52.500 5.000
Cu 42.500 52.500 7.500
Fe 42.500 52.500 10.000
Cu 42.500 52.500 12.500
Fe 42.500 52.500 15.000
Cu 42.500 52.500 17.500
Fe 42.500 52.500 20.000
Cu 42.500 52.500 22.500
Fe 42.500 52.500 25.000
Cu 42.500 52.500 27.500
Fe 42.500 52.500 30.000
Cu 42.500 52.500 32.500
Fe 42.500 52.500 35.000
Cu 42.500 52.500 37.500
Fe 42.500 52.500 40.000
Cu 42.500 52.500 42.500
Fe 42.500 52.500 45.000
Cu 42.500 52.500 47.500
Fe 42.500 52.500 50.000
Cu 42.500 52.500 52.500
Fe 42.500 52.500 55.000
Cu 42.500 55.000 0.000
Fe 42.500 55.000 2.500
Cu 42.500 55.000 5.000
Fe 42.500 55.000 7.500
Cu 42.500 55.000 10.000
Fe 42.500 55.000 12.500
Cu 42.500 55.000 15.000
Fe 42.500 55.000 17.500
Cu 42.500 55.000 20.000
Fe 42.500 55.000 22.500
Cu 42.500 55.000 25.000
Fe 42.500 55.000 27.500
Cu 42.500 55.000 30.000
Fe 42.500 55.000 32.500
Cu 42.500 55.000 35.000
Fe 42.500 55.000 37.500
Cu 42.500 55.000 40.000
Fe 42.500 55.000 42.500
Cu 42.500 55.000 45.000
Fe 42.500 55.000 47.500
Cu 42.500 55.000 50.000
Fe 42.500 55.000 52.500
Cu 42.500 55.000 55.000
Fe 45.000 0.000 0.000
Cu 45.000 0.000 2.500
Fe 45.000 0.000 5.000
Cu 45.000 0.000 7.500
Fe 45.000 0.000 10.000
Cu 45.000 0.000 12.500
Fe 45.000 0.000 15.000
Cu 45.000 0.000 17.500
Fe 45.000 0.000 20.000
Cu 45.000 0.000 22.500
Fe 45.000 0.000 25.000
Cu 45.000 0.000 27.500
Fe 45.000 0.000 30.000
Cu 45.000 0.000 32.500
Fe 45.000 0.000 35.000
Cu 45.000 0.000 37.500
Fe 45.000 0.000 40.000
Cu 45.000 0.000 42.500
Fe 45.000 0.000 45.000
Cu 45.000 0.000 47.500
Fe 45.000 0.000 50.000
Cu 45.000 0.000 52.500
Fe 45.000 0.000 55.000
Cu 45.000 2.500 0.000
Fe 45.000 2.500 2.500
Cu 45.000 2.500 5.000
Fe 45.000 2.500 7.500
Cu 45.000 2.500 10.000
Fe 45.000 2.500 12.500
Cu 45.000 2.500 15.000
Fe 45.000 2.500 17.500
Cu 45.000 2.500 20.000
Fe 45.000 2.500 22.500
Cu 45.000 2.500 25.000
Fe 45.000 2.500 27.500
Cu 45.000 2.500 30.000
Fe 45.000 2.500 32.500
Cu 45.000 2.500 35.000
Fe 45.000 2.500 37.500
Cu 45.000 2.500 40.000
Fe 45.000 2.500 42.500
Cu 45.000 2.500 45.000
Fe 45.000 2.500 47.500
Cu 45.000 2.500 50.000
Fe 45.000 2.500 52.500
Cu 45.000 2.500 55.000
Fe 45.000 5.000 0.000
Cu 45.000 5.000 2.500
Fe 45.000 5.000 5.000
Cu 45.000 5.000 7.500
Fe 45.000 5.000 10.000
Cu 45.000 5.000 12.500
Fe 45.000 5.000 15.000
Cu 45.000 5.000 17.500
Fe 45.000 5.000 20.000
Cu 45.000 5.000 22.500
Fe 45.000 5.000 25.000
Cu 45.000 5.000 27.500
Fe 45.000 5.000 30.000
Cu 45.000 5.000 32.500
Fe 45.000 5.000 35.000
Cu 45.000 5.000 37.500
Fe 45.000 5.000 40.000
Cu 45.000 5.000 42.500
Fe 45.000 5.000 45.000
Cu 45.000 5.000 47.500
Fe 45.000 5.000 50.000
Cu 45.000 5.000 52.500
Fe 45.000 5.000 55.000
Cu 45.000 7.500 0.000
Fe 45.000 7.500 2.500
Cu 45.000 7.500 5.000
Fe 45.000 7.500 7.500
Cu 45.000 7.500 10.000
Fe 45.000 7.500 12.500
Cu 45.000 7.500 15.000
Fe 45.000 7.500 17.500
Cu 45.000 7.500 20.000
Fe 45.000 7.500 22.500
Cu 45.000 7.500 25.000
Fe 45.000 7.500 27.500
Cu 45.000 7.500 30.000
Fe 45.000 7.500 32.500
Cu 45.000 7.500 35.000
Fe 45.000 7.500 37.500
Cu 45.000 7.500 40.000
Fe 45.000 7.500 42.500
Cu 45.000 7.500 45.000
Fe 45.000 7.500 47.500
Cu 45.000 7.500 50.000
Fe 45.000 7.500 52.500
Cu 45.000 7.500 55.000
Fe 45.000 10.000 0.000
Cu 45.000 10.000 2.500
Fe 45.000 10.000 5.000
Cu 45.000 10.000 7.500
Fe 45.000 10.000 10.000
Cu 45.000 10.000 12.500
Fe 45.000 10.000 15.000
Cu 45.000 10.000 17.500
Fe 45.000 10.000 20.000
Cu 45.000 10.000 22.500
Fe 45.000 10.000 25.000
Cu 45.000 10.000 27.500
Fe 45.000 10.000 30.000
Cu 45.000 10.000 32.500
Fe 45.000 10.000 35.000
Cu 45.000 10.000 37.500
Fe 45.000 10.000 40.000
Cu 45.000 10.000 42.500
Fe 45.000 10.000 45.000
Cu 45.000 10.000 47.500
Fe 45.000 10.000 50.000
Cu 45.000 10.000 52.500
Fe 45.000 10.000 55.000
Cu 45.000 12.500 0.000
Fe 45.000 12.500 2.500
Cu 45.000 12.500 5.000
Fe 45.000 12.500 7.500
Cu 45.000 12.500 10.000
Fe 45.000 12.500 12.500
Cu 45.000 12.500 15.000
Fe 45.000 12.500 17.500
Cu 45.000 12.500 20.000
Fe 45.000 12.500 22.500
Cu 45.000 12.500 25.000
Fe 45.000 12.500 27.500
Cu 45.000 12.500 30.000
Fe 45.000 12.500 32.500
Cu 45.000 12.500 35.000
Fe 45.000 12.500 37.500
Cu 45.000 12.500 40.000
Fe 45.000 12.500 42.500
Cu 45.000 12.500 45.000
Fe 45.000 12.500 47.500
Cu 45.000 12.500 50.000
Fe 45.000 12.500 52.500
Cu 45.000 12.500 55.000
Fe 45.000 15.000 0.000
Cu 45.000 15.000 2.500
Fe 45.000 15.000 5.000
Cu 45.000 15.000 7.500
Fe 45.000 15.000 10.000
Cu 45.000 15.000 12.500
Fe 45.000 15.000 15.000
Cu 45.000 15.000 17.500
Fe 45.000 15.000 20.000
Cu 45.000 15.000 22.500
Fe 45.000 15.000 25.000
Cu 45.000 15.000 27.500
Fe 45.000 15.000 30.000
Cu 45.000 15.000 32.500
Fe 45.000 15.000 35.000
Cu 45.000 15.000 37.500
Fe 45.000 15.000 40.000
Cu 45.000 15.000 42.500
Fe 45.000 15.000 45.000
Cu 45.000 15.000 47.500
Fe 45.000 15.000 50.000
Cu 45.000 15.000 52.500
Fe 45.000 15.000 55.000
Cu 45.000 17.500 0.000
Fe 45.000 17.500 2.500
Cu 45.000 17.500 5.000
Fe 45.000 17.500 7.500
Cu 45.000 17.500 10.000
Fe 45.000 17.500 12.500
Cu 45.000 17.500 15.000
Fe 45.000 17.500 17.500
Cu 45.000 17.500 20.000
Fe 45.000 17.500 22.500
Cu 45.000 17.500 25.000
Fe 45.000 17.500 27.500
Cu 45.000 17.500 30.000
Fe 45.000 17.500 32.500
Cu 45.000 17.500 35.000
Fe 45.000 17.500 37.500
Cu 45.000 17.500 40.000
Fe 45.000 17.500 42.500
Cu 45.000 17.500 45.000
Fe 45.000 17.500 47.500
Cu 45.000 17.500 50.000
Fe 45.000 17.500 52.500
Cu 45.000 17.500 55.000
Fe 45.000 20.000 0.000
Cu 45.000 20.000 2.500
Fe 45.000 20.000 5.000
Cu 45.000 20.000 7.500
Fe 45.000 20.000 10.000
Cu 45.000 20.000 12.500
Fe 45.000 20.000 15.000
Cu 45.000 20.000 17.500
Fe 45.000 20.000 20.000
Cu 45.000 20.000 22.500
Fe 45.000 20.000 25.000
Cu 45.000 20.000 27.500
Fe 45.000 20.000 30.000
Cu 45.000 20.000 32.500
Fe 45.000 20.000 35.000
Cu 45.000 20.000 37.500
Fe 45.000 20.000 40.000
Cu 45.000 20.000 42.500
Fe 45.000 20.000 45.000
Cu 45.000 20.000 47.500
Fe 45.000 20.000 50.000
Cu 45.000 20.000 52.500
Fe 45.000 20.000 55.000
Cu 45.000 22.500 0.000
Fe 45.000 22.500 2.500
Cu 45.000 22.500 5.000
Fe 45.000 22.500 7.500
Cu 45.000 22.500 10.000
Fe 45.000 22.500 12.500
Cu 45.000 22.500 15.000
Fe 45.000 22.500 17.500
Cu 45.000 22.500 20.000
Fe 45.000 22.500 22.500
Cu 45.000 22.500 25.000
Fe 45.000 22.500 27.500
Cu 45.000 22.500 30.000
Fe 45.000 22.500 32.500
Cu 45.000 22.500 35.000
Fe 45.000 22.500 37.500
Cu 45.000 22.500 40.000
Fe 45.000 22.500 42.500
Cu 45.000 22.500 45.000
Fe 45.000 22.500 47.500
Cu 45.000 22.500 50.000
Fe 45.000 22.500 52.500
Cu 45.000 22.500 55.000
Fe 45.000 25.000 0.000
Cu 45.000 25.000 2.500
Fe 45.000 25.000 5.000
Cu 45.000 25.000 7.500
Fe 45.000 25.000 10.000
Cu 45.000 25.000 12.500
Fe 45.000 25.000 15.000
Cu 45.000 25.000 17.500
Fe 45.000 25.000 20.000
Cu 45.000 25.000 22.500
Fe 45.000 25.000 25.000
Cu 45.000 25.000 27.500
Fe 45.000 25.000 30.000
Cu 45.000 25.000 32.500
Fe 45.000 25.000 35.000
Cu 45.000 25.000 37.500
Fe 45.000 25.000 40.000
Cu 45.000 25.000 42.500
Fe 45.000 25.000 45.000
Cu 45.000 25.000 47.500
Fe 45.000 25.000 50.000
Cu 45.000 25.000 52.500
Fe 45.000 25.000 55.000
Cu 45.000 27.500 0.000
Fe 45.000 27.500 2.500
Cu 45.000 27.500 5.000
Fe 45.000 27.500 7.500
Cu 45.000 27.500 10.000
Fe 45.000 27.500 12.500
Cu 45.000 27.500 15.000
Fe 45.000 27.500 17.500
Cu 45.000 27.500 20.000
Fe 45.000 27.500 22.500
Cu 45.000 27.500 25.000
Fe 45.000 27.500 27.500
Cu 45.000 27.500 30.000
Fe 45.000 27.500 32.500
Cu 45.000 27.500 35.000
Fe 45.000 27.500 37.500
Cu 45.000 27.500 40.000
Fe 45.000 27.500 42.500
Cu 45.000 27.500 45.000
Fe 45.000 27.500 47.500
Cu 45.000 27.500 50.000
Fe 45.000 27.500 52.500
Cu 45.000 27.500 55.000
Fe 45.000 30.000 0.000
Cu 45.000 30.000 2.500
Fe 45.000 30.000 5.000
Cu 45.000 30.000 7.500
Fe 45.000 30.000 10.000
Cu 45.000 30.000 12.500
Fe 45.000 30.000 15.000
Cu 45.000 30.000 17.500
Fe 45.000 30.000 20.000
Cu 45.000 30.000 22.500
Fe 45.000 30.000 25.000
Cu 45.000 30.000 27.500
Fe 45.000 30.000 30.000
Cu 45.000 30.000 32.500
Fe 45.000 30.000 35.000
Cu 45.000 30.000 37.500
Fe 45.000 30.000 40.000
Cu 45.000 30.000 42.500
Fe 45.000 30.000 45.000
Cu 45.000 30.000 47.500
Fe 45.000 30.000 50.000
Cu 45.000 30.000 52.500
Fe 45.000 30.000 55.000
Cu 45.000 32.500 0.000
Fe 45.000 32.500 2.500
Cu 45.000 32.500 5.000
Fe 45.000 32.500 7.500
Cu 45.000 32.500 10.000
Fe 45.000 32.500 12.500
Cu 45.000 32.500 15.000
Fe 45.000 32.500 17.500
Cu 45.000 32.500 20.000
Fe 45.000 32.500 22.500
Cu 45.000 32.500 25.000
Fe 45.000 32.500 27.500
Cu 45.000 32.500 30.000
Fe 45.000 32.500 32.500
Cu 45.000 32.500 35.000
Fe 45.000 32.500 37.500
Cu 45.000 32.500 40.000
Fe 45.000 32.500 42.500
Cu 45.000 32.500 45.000
Fe 45.000 32.500 47.500
Cu 45.000 32.500 50.000
Fe 45.000 32.500 52.500
Cu 45.000 32.500 55.000
Fe 45.000 35.000 0.000
Cu 45.000 35.000 2.500
Fe 45.000 35.000 5.000
Cu 45.000 35.000 7.500
Fe 45.000 35.000 10.000
Cu 45.000 35.000 12.500
Fe 45.000 35.000 15.000
Cu 45.000 35.000 17.500
Fe 45.000 35.000 20.000
Cu 45.000 35.000 22.500
Fe 45.000 35.000 25.000
Cu 45.000 35.000 27.500
Fe 45.000 35.000 30.000
Cu 45.000 35.000 32.500
Fe 45.000 35.000 35.000
Cu 45.000 35.000 37.500
Fe 45.000 35.000 40.000
Cu 45.000 35.000 42.500
Fe 45.000 35.000 45.000
Cu 45.000 35.000 47.500
Fe 45.000 35.000 50.000
Cu 45.000 35.000 52.500
Fe 45.000 35.000 55.000
Cu 45.000 37.500 0.000
Fe 45.000 37.500 2.500
Cu 45.000 37.500 5.000
Fe 45.000 37.500 7.500
Cu 45.000 37.500 10.000
Fe 45.000 37.500 12.500
Cu 45.000 37.500 15.000
Fe 45.000 37.500 17.500
Cu 45.000 37.500 20.000
Fe 45.000 37.500 22.500
Cu 45.000 37.500 25.000
Fe 45.000 37.500 27.500
Cu 45.000 37.500 30.000
Fe 45.000 37.500 32.500
Cu 45.000 37.500 35.000
Fe 45.000 37.500 37.500
Cu 45.000 37.500 40.000
Fe 45.000 37.500 42.500
Cu 45.000 37.500 45.000
Fe 45.000 37.500 47.500
Cu 45.000 37.500 50.000
Fe 45.000 37.500 52.500
Cu 45.000 37.500 55.000
Fe 45.000 40.000 0.000
Cu 45.000 40.000 2.500
Fe 45.000 40.000 5.000
Cu 45.000 40.000 7.500
Fe 45.000 40.000 10.000
Cu 45.000 40.000 12.500
Fe 45.000 40.000 15.000
Cu 45.000 40.000 17.500
Fe 45.000 40.000 20.000
Cu 45.000 40.000 22.500
Fe 45.000 40.000 25.000
Cu 45.000 40.000 27.500
Fe 45.000 40.000 30.000
Cu 45.000 40.000 32.500
Fe 45.000 40.000 35.000
Cu 45.000 40.000 37.500
Fe 45.000 40.000 40.000
Cu 45.000 40.000 42.500
Fe 45.000 40.000 45.000
Cu 45.000 40.000 47.500
Fe 45.000 40.000 50.000
Cu 45.000 40.000 52.500
Fe 45.000 40.000 55.000
Cu 45.000 42.500 0.000
Fe 45.000 42.500 2.500
Cu 45.000 42.500 5.000
Fe 45.000 42.500 7.500
Cu 45.000 42.500 10.000
Fe 45.000 42.500 12.500
Cu 45.000 42.500 15.000
Fe 45.000 42.500 17.500
Cu 45.000 42.500 20.000
Fe 45.000 42.500 22.500
Cu 45.000 42.500 25.000
Fe 45.000 42.500 27.500
Cu 45.000 42.500 30.000
Fe 45.000 42.500 32.500
Cu 45.000 42.500 35.000
Fe 45.000 42.500 37.500
Cu 45.000 42.500 40.000
Fe 45.000 42.500 42.500
Cu 45.000 42.500 45.000
Fe 45.000 42.500 47.500
Cu 45.000 42.500 50.000
Fe 45.000 42.500 52.500
Cu 45.000 42.500 55.000
Fe 45.000 45.000 0.000
Cu 45.000 45.000 2.500
Fe 45.000 45.000 5.000
Cu 45.000 45.000 7.500
Fe 45.000 45.000 10.000
Cu 45.000 45.000 12.500
Fe 45.000 45.000 15.000
Cu 45.000 45.000 17.500
Fe 45.000 45.000 20.000
Cu 45.000 45.000 22.500
Fe 45.000 45.000 25.000
Cu 45.000 45.000 27.500
Fe 45.000 45.000 30.000
Cu 45.000 45.000 32.500
Fe 45.000 45.000 35.000
Cu 45.000 45.000 37.500
Fe 45.000 45.000 40.000
Cu 45.000 45.000 42.500
Fe 45.000 45.000 45.000
Cu 45.000 45.000 47.500
Fe 45.000 45.000 50.000
Cu 45.000 45.000 52.500
Fe 45.000 45.000 55.000
Cu 45.000 47.500 0.000
Fe 45.000 47.500 2.500
Cu 45.000 47.500 5.000
Fe 45.000 47.500 7.500
Cu 45.000 47.500 10.000
Fe 45.000 47.500 12.500
Cu 45.000 47.500 15.000
Fe 45.000 47.500 17.500
Cu 45.000 47.500 20.000
Fe 45.000 47.500 22.500
Cu 45.000 47.500 25.000
Fe 45.000 47.500 27.500
Cu 45.000 47.500 30.000
Fe 45.000 47.500 32.500
Cu 45.000 47.500 35.000
Fe 45.000 47.500 37.500
Cu 45.000 47.500 40.000
Fe 45.000 47.500 42.500
Cu 45.000 47.500 45.000
Fe 45.000 47.500 47.500
Cu 45.000 47.500 50.000
Fe 45.000 47.500 52.500
Cu 45.000 47.500 55.000
Fe 45.000 50.000 0.000
Cu 45.000 50.000 2.500
Fe 45.000 50.000 5.000
Cu 45.000 50.000 7.500
Fe 45.000 50.000 10.000
Cu 45.000 50.000 12.500
Fe 45.000 50.000 15.000
Cu 45.000 50.000 17.500
Fe 45.000 50.000 20.000
Cu 45.000 50.000 22.500
Fe 45.000 50.000 25.000
Cu 45.000 50.000 27.500
Fe 45.000 50.000 30.000
Cu 45.000 50.000 32.500
Fe 45.000 50.000 35.000
Cu 45.000 50.000 37.500
Fe 45.000 50.000 40.000
Cu 45.000 50.000 42.500
Fe 45.000 50.000 45.000
Cu 45.000 50.000 47.500
Fe 45.000 50.000 50.000
Cu 45.000 50.000 52.500
Fe 45.000 50.000 55.000
Cu 45.000 52.500 0.000
Fe 45.000 52.500 2.500
Cu 45.000 52.500 5.000
Fe 45.000 52.500 7.500
Cu 45.000 52.500 10.000
Fe 45.000 52.500 12.500
Cu 45.000 52.500 15.000
Fe 45.000 52.500 17.500
Cu 45.000 52.500 20.000
Fe 45.000 52.500 22.500
Cu 45.000 52.500 25.000
Fe 45.000 52.500 27.500
Cu 45.000 52.500 30.000
Fe 45.000 52.500 32.500
Cu 45.000 52.500 35.000
Fe 45.000 52.500 37.500
Cu 45.000 52.500 40.000
Fe 45.000 52.500 42.500
Cu 45.000 52.500 45.000
Fe 45.000 52.500 47.500
Cu 45.000 52.500 50.000
Fe 45.000 52.500 52.500
Cu 45.000 52.500 55.000
Fe 45.000 55.000 0.000
Cu 45.000 55.000 2.500
Fe 45.000 55.000 5.000
Cu 45.000 55.000 7.500
Fe 45.000 55.000 10.000
Cu 45.000 55.000 12.500
Fe 45.000 55.000 15.000
Cu 45.000 55.000 17.500
Fe 45.000 55.000 20.000
Cu 45.000 55.000 22.500
Fe 45.000 55.000 25.000
Cu 45.000 55.000 27.500
Fe 45.000 55.000 30.000
Cu 45.000 55.000 32.500
Fe 45.000 55.000 35.000
Cu 45.000 55.000 37.500
Fe 45.000 55.000 40.000
Cu 45.000 55.000 42.500
Fe 45.000 55.000 45.000
Cu 45.000 55.000 47.500
Fe 45.000 55.000 50.000
Cu 45.000 55.000 52.500
Fe 45.000 55.000 55.000
Cu 47.500 0.000 0.000
Fe 47.500 0.000 2.500
Cu 47.500 0.000 5.000
Fe 47.500 0.000 7.500
Cu 47.500 0.000 10.000
Fe 47.500 0.000 12.500
Cu 47.500 0.000 15.000
Fe 47.500 0.000 17.500
Cu 47.500 0.000 20.000
Fe 47.500 0.000 22.500
Cu 47.500 0.000 25.000
Fe 47.500 0.000 27.500
Cu 47.500 0.000 30.000
Fe 47.500 0.000 32.500
Cu 47.500 0.000 35.000
Fe 47.500 0.000 37.500
Cu 47.500 0.000 40.000
Fe 47.500 0.000 42.500
Cu 47.500 0.000 45.000
Fe 47.500 0.000 47.500
Cu 47.500 0.000 50.000
Fe 47.500 0.000 52.500
Cu 47.500 0.000 55.000
Fe 47.500 2.500 0.000
Cu 47.500 2.500 2.500
Fe 47.500 2.500 5.000
Cu 47.500 2.500 7.500
Fe 47.500 2.500 10.000
Cu 47.500 2.500 12.500
Fe 47.500 2.500 15.000
Cu 47.500 2.500 17.500
Fe 47.500 2.500 20.000
Cu 47.500 2.500 22.500
Fe 47.500 2.500 25.000
Cu 47.500 2.500 27.500
Fe 47.500 2.500 30.000
Cu 47.500 2.500 32.500
Fe 47.500 2.500 35.000
Cu 47.500 2.500 37.500
Fe 47.500 2.500 40.000
Cu 47.500 2.500 42.500
Fe 47.500 2.500 45.000
Cu 47.500 2.500 47.500
Fe 47.500 2.500 50.000
Cu 47.500 2.500 52.500
Fe 47.500 2.500 55.000
Cu 47.500 5.000 0.000
Fe 47.500 5.000 2.500
Cu 47.500 5.000 5.000
Fe 47.500 5.000 7.500
Cu 47.500 5.000 10.000
Fe 47.500 5.000 12.500
Cu 47.500 5.000 15.000
Fe 47.500 5.000 17.500
Cu 47.500 5.000 20.000
Fe 47.500 5.000 22.500
Cu 47.500 5.000 25.000
Fe 47.500 5.000 27.500
Cu 47.500 5.000 30.000
Fe 47.500 5.000 32.500
Cu 47.500 5.000 35.000
Fe 47.500 5.000 37.500
Cu 47.500 5.000 40.000
Fe 47.500 5.000 42.500
Cu 47.500 5.000 45.000
Fe 47.500 5.000 47.500
Cu 47.500 5.000 50.000
Fe 47.500 5.000 52.500
Cu 47.500 5.000 55.000
Fe 47.500 7.500 0.000
Cu 47.500 7.500 2.500
Fe 47.500 7.500 5.000
Cu 47.500 7.500 7.500
Fe 47.500 7.500 10.000
Cu 47.500 7.500 12.500
Fe 47.500 7.500 15.000
Cu 47.500 7.500 17.500
Fe 47.500 7.500 20.000
Cu 47.500 7.500 22.500
Fe 47.500 7.500 25.000
Cu 47.500 7.500 27.500
Fe 47.500 7.500 30.000
Cu 47.500 7.500 32.500
Fe 47.500 7.500 35.000
Cu 47.500 7.500 37.500
Fe 47.500 7.500 40.000
Cu 47.500 7.500 42.500
Fe 47.500 7.500 45.000
Cu 47.500 7.500 47.500
Fe 47.500 7.500 50.000
Cu 47.500 7.500 52.500
Fe 47.500 7.500 55.000
Cu 47.500 10.000 0.000
Fe 47.500 10.000 2.500
Cu 47.500 10.000 5.000
Fe 47.500 10.000 7.500
Cu 47.500 10.000 10.000
Fe 47.500 10.000 12.500
Cu 47.500 10.000 15.000
Fe 47.500 10.000 17.500
Cu 47.500 10.000 20.000
Fe 47.500 10.000 22.500
Cu 47.500 10.000 25.000
Fe 47.500 10.000 27.500
Cu 47.500 10.000 30.000
Fe 47.500 10.000 32.500
Cu 47.500 10.000 35.000
Fe 47.500 10.000 37.500
Cu 47.500 10.000 40.000
Fe 47.500 10.000 42.500
Cu 47.500 10.000 45.000
Fe 47.500 10.000 47.500
Cu 47.500 10.000 50.000
Fe 47.500 10.000 52.500
Cu 47.500 10.000 55.000
Fe 47.500 12.500 0.000
Cu 47.500 12.500 2.500
Fe 47.500 12.500 5.000
Cu 47.500 12.500 7.500
Fe 47.500 12.500 10.000
Cu 47.500 12.500 12.500
Fe 47.500 12.500 15.000
Cu 47.500 12.500 17.500
Fe 47.500 12.500 20.000
Cu 47.500 12.500 22.500
Fe 47.500 12.500 25.000
Cu 47.500 12.500 27.500
Fe 47.500 12.500 30.000
Cu 47.500 12.500 32.500
Fe 47.500 12.500 35.000
Cu 47.500 12.500 37.500
Fe 47.500 12.500 40.000
Cu 47.500 12.500 42.500
Fe 47.500 12.500 45.000
Cu 47.500 12.500 47.500
Fe 47.500 12.500 50.000
Cu 47.500 12.500 52.500
Fe 47.500 12.500 55.000
Cu 47.500 15.000 0.000
Fe 47.500 15.000 2.500
Cu 47.500 15.000 5.000
Fe 47.500 15.000 7.500
Cu 47.500 15.000 10.000
Fe 47.500 15.000 12.500
Cu 47.500 15.000 15.000
Fe 47.500 15.000 17.500
Cu 47.500 15.000 20.000
Fe 47.500 15.000 22.500
Cu 47.500 15.000 25.000
Fe 47.500 15.000 27.500
Cu 47.500 15.000 30.000
Fe 47.500 15.000 32.500
Cu 47.500 15.000 35.000
Fe 47.500 15.000 37.500
Cu 47.500 15.000 40.000
Fe 47.500 15.000 42.500
Cu 47.500 15.000 45.000
Fe 47.500 15.000 47.500
Cu 47.500 15.000 50.000
Fe 47.500 15.000 52.500
Cu 47.500 15.000 55.000
Fe 47.500 17.500 0.000
Cu 47.500 17.500 2.500
Fe 47.500 17.500 5.000
Cu 47.500 17.500 7.500
Fe 47.500 17.500 10.000
Cu 47.500 17.500 12.500
Fe 47.500 17.500 15.000
Cu 47.500 17.500 17.500
Fe 47.500 17.500 20.000
Cu 47.500 17.500 22.500
Fe 47.500 17.500 25.000
Cu 47.500 17.500 27.500
Fe 47.500 17.500 30.000
Cu 47.500 17.500 32.500
Fe 47.500 17.500 35.000
Cu 47.500 17.500 37.500
Fe 47.500 17.500 40.000
Cu 47.500 17.500 42.500
Fe 47.500 17.500 45.000
Cu 47.500 17.500 47.500
Fe 47.500 17.500 50.000
Cu 47.500 17.500 52.500
Fe 47.500 17.500 55.000
Cu 47.500 20.000 0.000
Fe 47.500 20.000 2.500
Cu 47.500 20.000 5.000
Fe 47.500 20.000 7.500
Cu 47.500 20.000 10.000
Fe 47.500 20.000 12.500
Cu 47.500 20.000 15.000
Fe 47.500 20.000 17.500
Cu 47.500 20.000 20.000
Fe 47.500 20.000 22.500
Cu 47.500 20.000 25.000
Fe 47.500 20.000 27.500
Cu 47.500 20.000 30.000
Fe 47.500 20.000 32.500
Cu 47.500 20.000 35.000
Fe 47.500 20.000 37.500
Cu 47.500 20.000 40.000
Fe 47.500 20.000 42.500
Cu 47.500 20.000 45.000
Fe 47.500 20.000 47.500
Cu 47.500 20.000 50.000
Fe 47.500 20.000 52.500
Cu 47.500 20.000 55.000
Fe 47.500 22.500 0.000
Cu 47.500 22.500 2.500
Fe 47.500 22.500 5.000
Cu 47.500 22.500 7.500
Fe 47.500 22.500 10.000
Cu 47.500 22.500 12.500
Fe 47.500 22.500 15.000
Cu 47.500 22.500 17.500
Fe 47.500 22.500 20.000
Cu 47.500 22.500 22.500
Fe 47.500 22.500 25.000
Cu 47.500 22.500 27.500
Fe 47.500 22.500 30.000
Cu 47.500 22.500 32.500
Fe 47.500 22.500 35.000
Cu 47.500 22.500 37.500
Fe 47.500 22.500 40.000
Cu 47.500 22.500 42.500
Fe 47.500 22.500 45.000
Cu 47.500 22.500 47.500
Fe 47.500 22.500 50.000
Cu 47.500 22.500 52.500
Fe 47.500 22.500 55.000
Cu 47.500 25.000 0.000
Fe 47.500 25.000 2.500
Cu 47.500 25.000 5.000
Fe 47.500 25.000 7.500
Cu 47.500 25.000 10.000
Fe 47.500 25.000 12.500
Cu 47.500 25.000 15.000
Fe 47.500 25.000 17.500
Cu 47.500 25.000 20.000
Fe 47.500 25.000 22.500
Cu 47.500 25.000 25.000
Fe 47.500 25.000 27.500
Cu 47.500 25.000 30.000
Fe 47.500 25.000 32.500
Cu 47.500 25.000 35.000
Fe 47.500 25.000 37.500
Cu 47.500 25.000 40.000
Fe 47.500 25.000 42.500
Cu 47.500 25.000 45.000
Fe 47.500 25.000 47.500
Cu 47.500 25.000 50.000
Fe 47.500 25.000 52.500
Cu 47.500 25.000 55.000
Fe 47.500 27.500 0.000
Cu 47.500 27.500 2.500
Fe 47.500 27.500 5.000
Cu 47.500 27.500 7.500
Fe 47.500 27.500 10.000
Cu 47.500 27.500 12.500
Fe 47.500 27.500 15.000
Cu 47.500 27.500 17.500
Fe 47.500 27.500 20.000
Cu 47.500 27.500 22.500
Fe 47.500 27.500 25.000
Cu 47.500 27.500 27.500
Fe 47.500 27.500 30.000
Cu 47.500 27.500 32.500
Fe 47.500 27.500 35.000
Cu 47.500 27.500 37.500
Fe 47.500 27.500 40.000
Cu 47.500 27.500 42.500
Fe 47.500 27.500 45.000
Cu 47.500 27.500 47.500
Fe 47.500 27.500 50.000
Cu 47.500 27.500 52.500
Fe 47.500 27.500 55.000
Cu 47.500 30.000 0.000
Fe 47.500 30.000 2.500
Cu 47.500 30.000 5.000
Fe 47.500 30.000 7.500
Cu 47.500 30.000 10.000
Fe 47.500 30.000 12.500
Cu 47.500 30.000 15.000
Fe 47.500 30.000 17.500
Cu 47.500 30.000 20.000
Fe 47.500 30.000 22.500
Cu 47.500 30.000 25.000
Fe 47.500 30.000 27.500
Cu 47.500 30.000 30.000
Fe 47.500 30.000 32.500
Cu 47.500 30.000 35.000
Fe 47.500 30.000 37.500
Cu 47.500 30.000 40.000
Fe 47.500 30.000 42.500
Cu 47.500 30.000 45.000
Fe 47.500 30.000 47.500
Cu 47.500 30.000 50.000
Fe 47.500 30.000 52.500
Cu 47.500 30.000 55.000
Fe 47.500 32.500 0.000
Cu 47.500 32.500 2.500
Fe 47.500 32.500 5.000
Cu 47.500 32.500 7.500
Fe 47.500 32.500 10.000
Cu 47.500 32.500 12.500
Fe 47.500 32.500 15.000
Cu 47.500 32.500 17.500
Fe 47.500 32.500 20.000
Cu 47.500 32.500 22.500
Fe 47.500 32.500 25.000
Cu 47.500 32.500 27.500
Fe 47.500 32.500 30.000
Cu 47.500 32.500 32.500
Fe 47.500 32.500 35.000
Cu 47.500 32.500 37.500
Fe 47.500 32.500 40.000
Cu 47.500 32.500 42.500
Fe 47.500 32.500 45.000
Cu 47.500 32.500 47.500
Fe 47.500 32.500 50.000
Cu 47.500 32.500 52.500
Fe 47.500 32.500 55.000
Cu 47.500 35.000 0.000
Fe 47.500 35.000 2.500
Cu 47.500 35.000 5.000
Fe 47.500 35.000 7.500
Cu 47.500 35.000 10.000
Fe 47.500 35.000 12.500
Cu 47.500 35.000 15.000
Fe 47.500 35.000 17.500
Cu 47.500 35.000 20.000
Fe 47.500 35.000 22.500
Cu 47.500 35.000 25.000
Fe 47.500 35.000 27.500
Cu 47.500 35.000 30.000
Fe 47.500 35.000 32.500
Cu 47.500 35.000 35.000
Fe 47.500 35.000 37.500
Cu 47.500 35.000 40.000
Fe 47.500 35.000 42.500
Cu 47.500 35.000 45.000
Fe 47.500 35.000 47.500
Cu 47.500 35.000 50.000
Fe 47.500 35.000 52.500
Cu 47.500 35.000 55.000
Fe 47.500 37.500 0.000
Cu 47.500 37.500 2.500
Fe 47.500 37.500 5.000
Cu 47.500 37.500 7.500
Fe 47.500 37.500 10.000
Cu 47.500 37.500 12.500
Fe 47.500 37.500 15.000
Cu 47.500 37.500 17.500
Fe 47.500 37.500 20.000
Cu 47.500 37.500 22.500
Fe 47.500 37.500 25.000
Cu 47.500 37.500 27.500
Fe 47.500 37.500 30.000
Cu 47.500 37.500 32.500
Fe 47.500 37.500 35.000
Cu 47.500 37.500 37.500
Fe 47.500 37.500 40.000
Cu 47.500 37.500 42.500
Fe 47.500 37.500 45.000
Cu 47.500 37.500 47.500
Fe 47.500 37.500 50.000
Cu 47.500 37.500 52.500
Fe 47.500 37.500 55.000
Cu 47.500 40.000 0.000
Fe 47.500 40.000 2.500
Cu 47.500 40.000 5.000
Fe 47.500 40.000 7.500
Cu 47.500 40.000 10.000
Fe 47.500 40.000 12.500
Cu 47.500 40.000 15.000
Fe 47.500 40.000 17.500
Cu 47.500 40.000 20.000
Fe 47.500 40.000 22.500
Cu 47.500 40.000 25.000
Fe 47.500 40.000 27.500
Cu 47.500 40.000 30.000
Fe 47.500 40.000 32.500
Cu 47.500 40.000 35.000
Fe 47.500 40.000 37.500
Cu 47.500 40.000 40.000
Fe 47.500 40.000 42.500
Cu 47.500 40.000 45.000
Fe 47.500 40.000 47.500
Cu 47.500 40.000 50.000
Fe 47.500 40.000 52.500
Cu 47.500 40.000 55.000
Fe 47.500 42.500 0.000
Cu 47.500 42.500 2.500
Fe 47.500 42.500 5.000
Cu 47.500 42.500 7.500
Fe 47.500 42.500 10.000
Cu 47.500 42.500 12.500
Fe 47.500 42.500 15.000
Cu 47.500 42.500 17.500
Fe 47.500 42.500 20.000
Cu 47.500 42.500 22.500
Fe 47.500 42.500 25.000
Cu 47.500 42.500 27.500
Fe 47.500 42.500 30.000
Cu 47.500 42.500 32.500
Fe 47.500 42.500 35.000
Cu 47.500 42.500 37.500
Fe 47.500 42.500 40.000
Cu 47.500 42.500 42.500
Fe 47.500 42.500 45.000
Cu 47.500 42.500 47.500
Fe 47.500 42.500 50.000
Cu 47.500 42.500 52.500
Fe 47.500 42.500 55.000
Cu 47.500 45.000 0.000
Fe 47.500 45.000 2.500
Cu 47.500 45.000 5.000
Fe 47.500 45.000 7.500
Cu 47.500 45.000 10.000
Fe 47.500 45.000 12.500
Cu 47.500 45.000 15.000
Fe 47.500 45.000 17.500
Cu 47.500 45.000 20.000
Fe 47.500 45.000 22.500
Cu 47.500 45.000 25.000
Fe 47.500 45.000 27.500
Cu 47.500 45.000 30.000
Fe 47.500 45.000 32.500
Cu 47.500 45.000 35.000
Fe 47.500 45.000 37.500
Cu 47.500 45.000 40.000
Fe 47.500 45.000 42.500
Cu 47.500 45.000 45.000
Fe 47.500 45.000 47.500
Cu 47.500 45.000 50.000
Fe 47.500 45.000 52.500
Cu 47.500 45.000 55.000
Fe 47.500 47.500 0.000
Cu 47.500 47.500 2.500
Fe 47.500 47.500 5.000
Cu 47.500 47.500 7.500
Fe 47.500 47.500 10.000
Cu 47.500 47.500 12.500
Fe 47.500 47.500 15.000
Cu 47.500 47.500 17.500
Fe 47.500 47.500 20.000
Cu 47.500 47.500 22.500
Fe 47.500 47.500 25.000
Cu 47.500 47.500 27.500
Fe 47.500 47.500 30.000
Cu 47.500 47.500 32.500
Fe 47.500 47.500 35.000
Cu 47.500 47.500 37.500
Fe 47.500 47.500 40.000
Cu 47.500 47.500 42.500
Fe 47.500 47.500 45.000
Cu 47.500 47.500 47.500
Fe 47.500 47.500 50.000
Cu 47.500 47.500 52.500
Fe 47.500 47.500 55.000
Cu 47.500 50.000 0.000
Fe 47.500 50.000 2.500
Cu 47.500 50.000 5.000
Fe 47.500 50.000 7.500
Cu 47.500 50.000 10.000
Fe 47.500 50.000 12.500
Cu 47.500 50.000 15.000
Fe 47.500 50.000 17.500
Cu 47.500 50.000 20.000
Fe 47.500 50.000 22.500
Cu 47.500 50.000 25.000
Fe 47.500 50.000 27.500
Cu 47.500 50.000 30.000
Fe 47.500 50.000 32.500
Cu 47.500 50.000 35.000
Fe 47.500 50.000 37.500
Cu 47.500 50.000 40.000
Fe 47.500 50.000 42.500
Cu 47.500 50.000 45.000
Fe 47.500 50.000 47.500
Cu 47.500 50.000 50.000
Fe 47.500 50.000 52.500
Cu 47.500 50.000 55.000
Fe 47.500 52.500 0.000
Cu 47.500 52.500 2.500
Fe 47.500 52.500 5.000
Cu 47.500 52.500 7.500
Fe 47.500 52.500 10.000
Cu 47.500 52.500 12.500
Fe 47.500 52.500 15.000
Cu 47.500 52.500 17.500
Fe 47.500 52.500 20.000
Cu 47.500 52.500 22.500
Fe 47.500 52.500 25.000
Cu 47.500 52.500 27.500
Fe 47.500 52.500 30.000
Cu 47.500 52.500 32.500
Fe 47.500 52.500 35.000
Cu 47.500 52.500 37.500
Fe 47.500 52.500 40.000
Cu 47.500 52.500 42.500
Fe 47.500 52.500 45.000
Cu 47.500 52.500 47.500
Fe 47.500 52.500 50.000
Cu 47.500 52.500 52.500
Fe 47.500 52.500 55.000
Cu 47.500 55.000 0.000
Fe 47.500 55.000 2.500
Cu 47.500 55.000 5.000
Fe 47.500 55.000 7.500
Cu 47.500 55.000 10.000
Fe 47.500 55.000 12.500
Cu 47.500 55.000 15.000
Fe 47.500 55.000 17.500
Cu 47.500 55.000 20.000
Fe 47.500 55.000 22.500
Cu 47.500 55.000 25.000
Fe 47.500 55.000 27.500
Cu 47.500 55.000 30.000
Fe 47.500 55.000 32.500
Cu 47.500 55.000 35.000
Fe 47.500 55.000 37.500
Cu 47.500 55.000 40.000
Fe 47.500 55.000 42.500
Cu 47.500 55.000 45.000
Fe 47.500 55.000 47.500
Cu 47.500 55.000 50.000
Fe 47.500 55.000 52.500
Cu 47.500 55.000 55.000
Fe 50.000 0.000 0.000
Cu 50.000 0.000 2.500
Fe 50.000 0.000 5.000
Cu 50.000 0.000 7.500
Fe 50.000 0.000 10.000
Cu 50.000 0.000 12.500
Fe 50.000 0.000 15.000
Cu 50.000 0.000 17.500
Fe 50.000 0.000 20.000
Cu 50.000 0.000 22.500
Fe 50.000 0.000 25.000
Cu 50.000 0.000 27.500
Fe 50.000 0.000 30.000
Cu 50.000 0.000 32.500
Fe 50.000 0.000 35.000
Cu 50.000 0.000 37.500
Fe 50.000 0.000 40.000
Cu 50.000 0.000 42.500
Fe 50.000 0.000 45.000
Cu 50.000 0.000 47.500
Fe 50.000 0.000 50.000
Cu 50.000 0.000 52.500
Fe 50.000 0.000 55.000
Cu 50.000 2.500 0.000
Fe 50.000 2.500 2.500
Cu 50.000 2.500 5.000
Fe 50.000 2.500 7.500
Cu 50.000 2.500 10.000
Fe 50.000 2.500 12.500
Cu 50.000 2.500 15.000
Fe 50.000 2.500 17.500
Cu 50.000 2.500 20.000
Fe 50.000 2.500 22.500
Cu 50.000 2.500 25.000
Fe 50.000 2.500 27.500
Cu 50.000 2.500 30.000
Fe 50.000 2.500 32.500
Cu 50.000 2.500 35.000
Fe 50.000 2.500 37.500
Cu 50.000 2.500 40.000
Fe 50.000 2.500 42.500
Cu 50.000 2.500 45.000
Fe 50.000 2.500 47.500
Cu 50.000 2.500 50.000
Fe 50.000 2.500 52.500
Cu 50.000 2.500 55.000
Fe 50.000 5.000 0.000
Cu 50.000 5.000 2.500
Fe 50.000 5.000 5.000
Cu 50.000 5.000 7.500
Fe 50.000 5.000 10.000
Cu 50.000 5.000 12.500
Fe 50.000 5.000 15.000
Cu 50.000 5.000 17.500
Fe 50.000 5.000 20.000
Cu 50.000 5.000 22.500
Fe 50.000 5.000 25.000
Cu 50.000 5.000 27.500
Fe 50.000 5.000 30.000
Cu 50.000 5.000 32.500
Fe 50.000 5.000 35.000
Cu 50.000 5.000 37.500
Fe 50.000 5.000 40.000
Cu 50.000 5.000 42.500
Fe 50.000 5.000 45.000
Cu 50.000 5.000 47.500
Fe 50.000 5.000 50.000
Cu 50.000 5.000 52.500
Fe 50.000 5.000 55.000
Cu 50.000 7.500 0.000
Fe 50.000 7.500 2.500
Cu 50.000 7.500 5.000
Fe 50.000 7.500 7.500
Cu 50.000 7.500 10.000
Fe 50.000 7.500 12.500
Cu 50.000 7.500 15.000
Fe 50.000 7.500 17.500
Cu 50.000 7.500 20.000
Fe 50.000 7.500 22.500
Cu 50.000 7.500 25.000
Fe 50.000 7.500 27.500
Cu 50.000 7.500 30.000
Fe 50.000 7.500 32.500
Cu 50.000 7.500 35.000
Fe 50.000 7.500 37.500
Cu 50.000 7.500 40.000
Fe 50.000 7.500 42.500
Cu 50.000 7.500 45.000
Fe 50.000 7.500 47.500
Cu 50.000 7.500 50.000
Fe 50.000 7.500 52.500
Cu 50.000 7.500 55.000
Fe 50.000 10.000 0.000
Cu 50.000 10.000 2.500
Fe 50.000 10.000 5.000
Cu 50.000 10.000 7.500
Fe 50.000 10.000 10.000
Cu 50.000 10.000 12.500
Fe 50.000 10.000 15.000
Cu 50.000 10.000 17.500
Fe 50.000 10.000 20.000
Cu 50.000 10.000 22.500
Fe 50.000 10.000 25.000
Cu 50.000 10.000 27.500
Fe 50.000 10.000 30.000
Cu 50.000 10.000 32.500
Fe 50.000 10.000 35.000
Cu 50.000 10.000 37.500
Fe 50.000 10.000 40.000
Cu 50.000 10.000 42.500
Fe 50.000 10.000 45.000
Cu 50.000 10.000 47.500
Fe 50.000 10.000 50.000
Cu 50.000 10.000 52.500
Fe 50.000 10.000 55.000
Cu 50.000 12.500 0.000
Fe 50.000 12.500 2.500
Cu 50.000 12.500 5.000
Fe 50.000 12.500 7.500
Cu 50.000 12.500 10.000
Fe 50.000 12.500 12.500
Cu 50.000 12.500 15.000
Fe 50.000 12.500 17.500
Cu 50.000 12.500 20.000
Fe 50.000 12.500 22.500
Cu 50.000 12.500 25.000
Fe 50.000 12.500 27.500
Cu 50.000 12.500 30.000
Fe 50.000 12.500 32.500
Cu 50.000 12.500 35.000
Fe 50.000 12.500 37.500
Cu 50.000 12.500 40.000
Fe 50.000 12.500 42.500
Cu 50.000 12.500 45.000
Fe 50.000 12.500 47.500
Cu 50.000 12.500 50.000
Fe 50.000 12.500 52.500
Cu 50.000 12.500 55.000
Fe 50.000 15.000 0.000
Cu 50.000 15.000 2.500
Fe 50.000 15.000 5.000
Cu 50.000 15.000 7.500
Fe 50.000 15.000 10.000
Cu 50.000 15.000 12.500
Fe 50.000 15.000 15.000
Cu 50.000 15.000 17.500
Fe 50.000 15.000 20.000
Cu 50.000 15.000 22.500
Fe 50.000 15.000 25.000
Cu 50.000 15.000 27.500
Fe 50.000 15.000 30.000
Cu 50.000 15.000 32.500
Fe 50.000 15.000 35.000
Cu 50.000 15.000 37.500
Fe 50.000 15.000 40.000
Cu 50.000 15.000 42.500
Fe 50.000 15.000 45.000
Cu 50.000 15.000 47.500
Fe 50.000 15.000 50.000
Cu 50.000 15.000 52.500
Fe 50.000 15.000 55.000
Cu 50.000 17.500 0.000
Fe 50.000 17.500 2.500
Cu 50.000 17.500 5.000
Fe 50.000 17.500 7.500
Cu 50.000 17.500 10.000
Fe 50.000 17.500 12.500
Cu 50.000 17.500 15.000
Fe 50.000 17.500 17.500
Cu 50.000 17.500 20.000
Fe 50.000 17.500 22.500
Cu 50.000 17.500 25.000
Fe 50.000 17.500 27.500
Cu 50.000 17.500 30.000
Fe 50.000 17.500 32.500
Cu 50.000 17.500 35.000
Fe 50.000 17.500 37.500
Cu 50.000 17.500 40.000
Fe 50.000 17.500 42.500
Cu 50.000 17.500 45.000
Fe 50.000 17.500 47.500
Cu 50.000 17.500 50.000
Fe 50.000 17.500 52.500
Cu 50.000 17.500 55.000
Fe 50.000 20.000 0.000
Cu 50.000 20.000 2.500
Fe 50.000 20.000 5.000
Cu 50.000 20.000 7.500
Fe 50.000 20.000 10.000
Cu 50.000 20.000 12.500
Fe 50.000 20.000 15.000
Cu 50.000 20.000 17.500
Fe 50.000 20.000 20.000
Cu 50.000 20.000 22.500
Fe 50.000 20.000 25.000
Cu 50.000 20.000 27.500
Fe 50.000 20.000 30.000
Cu 50.000 20.000 32.500
Fe 50.000 20.000 35.000
Cu 50.000 20.000 37.500
Fe 50.000 20.000 40.000
Cu 50.000 20.000 42.500
Fe 50.000 20.000 45.000
Cu 50.000 20.000 47.500
Fe 50.000 20.000 50.000
Cu 50.000 20.000 52.500
Fe 50.000 20.000 55.000
Cu 50.000 22.500 0.000
Fe 50.000 22.500 2.500
Cu 50.000 22.500 5.000
Fe 50.000 22.500 7.500
Cu 50.000 22.500 10.000
Fe 50.000 22.500 12.500
Cu 50.000 22.500 15.000
Fe 50.000 22.500 17.500
Cu 50.000 22.500 20.000
Fe 50.000 22.500 22.500
Cu 50.000 22.500 25.000
Fe 50.000 22.500 27.500
Cu 50.000 22.500 30.000
Fe 50.000 22.500 32.500
Cu 50.000 22.500 35.000
Fe 50.000 22.500 37.500
Cu 50.000 22.500 40.000
Fe 50.000 22.500 42.500
Cu 50.000 22.500 45.000
Fe 50.000 22.500 47.500
Cu 50.000 22.500 50.000
Fe 50.000 22.500 52.500
Cu 50.000 22.500 55.000
Fe 50.000 25.000 0.000
Cu 50.000 25.000 2.500
Fe 50.000 25.000 5.000
Cu 50.000 25.000 7.500
Fe 50.000 25.000 10.000
Cu 50.000 25.000 12.500
Fe 50.000 25.000 15.000
Cu 50.000 25.000 17.500
Fe 50.000 25.000 20.000
Cu 50.000 25.000 22.500
Fe 50.000 25.000 25.000
Cu 50.000 25.000 27.500
Fe 50.000 25.000 30.000
Cu 50.000 25.000 32.500
Fe 50.000 25.000 35.000
Cu 50.000 25.000 37.500
Fe 50.000 25.000 40.000
Cu 50.000 25.000 42.500
Fe 50.000 25.000 45.000
Cu 50.000 25.000 47.500
Fe 50.000 25.000 50.000
Cu 50.000 25.000 52.500
Fe 50.000 25.000 55.000
Cu 50.000 27.500 0.000
Fe 50.000 27.500 2.500
Cu 50.000 27.500 5.000
Fe 50.000 27.500 7.500
Cu 50.000 27.500 10.000
Fe 50.000 27.500 12.500
Cu 50.000 27.500 15.000
Fe 50.000 27.500 17.500
Cu 50.000 27.500 20.000
Fe 50.000 27.500 22.500
Cu 50.000 27.500 25.000
Fe 50.000 27.500 27.500
Cu 50.000 27.500 30.000
Fe 50.000 27.500 32.500
Cu 50.000 27.500 35.000
Fe 50.000 27.500 37.500
Cu 50.000 27.500 40.000
Fe 50.000 27.500 42.500
Cu 50.000 27.500 45.000
Fe 50.000 27.500 47.500
Cu 50.000 27.500 50.000
Fe 50.000 27.500 52.500
Cu 50.000 27.500 55.000
Fe 50.000 30.000 0.000
Cu 50.000 30.000 2.500
Fe 50.000 30.000 5.000
Cu 50.000 30.000 7.500
Fe 50.000 30.000 10.000
Cu 50.000 30.000 12.500
Fe 50.000 30.000 15.000
Cu 50.000 30.000 17.500
Fe 50.000 30.000 20.000
Cu 50.000 30.000 22.500
Fe 50.000 30.000 25.000
Cu 50.000 30.000 27.500
Fe 50.000 30.000 30.000
Cu 50.000 30.000 32.500
Fe 50.000 30.000 35.000
Cu 50.000 30.000 37.500
Fe 50.000 30.000 40.000
Cu 50.000 30.000 42.500
Fe 50.000 30.000 45.000
Cu 50.000 30.000 47.500
Fe 50.000 30.000 50.000
Cu 50.000 30.000 52.500
Fe 50.000 30.000 55.000
Cu 50.000 32.500 0.000
Fe 50.000 32.500 2.500
Cu 50.000 32.500 5.000
Fe 50.000 32.500 7.500
Cu 50.000 32.500 10.000
Fe 50.000 32.500 12.500
Cu 50.000 32.500 15.000
Fe 50.000 32.500 17.500
Cu 50.000 32.500 20.000
Fe 50.000 32.500 22.500
Cu 50.000 32.500 25.000
Fe 50.000 32.500 27.500
Cu 50.000 32.500 30.000
Fe 50.000 32.500 32.500
Cu 50.000 32.500 35.000
Fe 50.000 32.500 37.500
Cu 50.000 32.500 40.000
Fe 50.000 32.500 42.500
Cu 50.000 32.500 45.000
Fe 50.000 32.500 47.500
Cu 50.000 32.500 50.000
Fe 50.000 32.500 52.500
Cu 50.000 32.500 55.000
Fe 50.000 35.000 0.000
Cu 50.000 35.000 2.500
Fe 50.000 35.000 5.000
Cu 50.000 35.000 7.500
Fe 50.000 35.000 10.000
Cu 50.000 35.000 12.500
Fe 50.000 35.000 15.000
Cu 50.000 35.000 17.500
Fe 50.000 35.000 20.000
Cu 50.000 35.000 22.500
Fe 50.000 35.000 25.000
Cu 50.000 35.000 27.500
Fe 50.000 35.000 30.000
Cu 50.000 35.000 32.500
Fe 50.000 35.000 35.000
Cu 50.000 35.000 37.500
Fe 50.000 35.000 40.000
Cu 50.000 35.000 42.500
Fe 50.000 35.000 45.000
Cu 50.000 35.000 47.500
Fe 50.000 35.000 50.000
Cu 50.000 35.000 52.500
Fe 50.000 35.000 55.000
Cu 50.000 37.500 0.000
Fe 50.000 37.500 2.500
Cu 50.000 37.500 5.000
Fe 50.000 37.500 7.500
Cu 50.000 37.500 10.000
Fe 50.000 37.500 12.500
Cu 50.000 37.500 15.000
Fe 50.000 37.500 17.500
Cu 50.000 37.500 20.000
Fe 50.000 37.500 22.500
Cu 50.000 37.500 25.000
Fe 50.000 37.500 27.500
Cu 50.000 37.500 30.000
Fe 50.000 37.500 32.500
Cu 50.000 37.500 35.000
Fe 50.000 37.500 37.500
Cu 50.000 37.500 40.000
Fe 50.000 37.500 42.500
Cu 50.000 37.500 45.000
Fe 50.000 37.500 47.500
Cu 50.000 37.500 50.000
Fe 50.000 37.500 52.500
Cu 50.000 37.500 55.000
Fe 50.000 40.000 0.000
Cu 50.000 40.000 2.500
Fe 50.000 40.000 5.000
Cu 50.000 40.000 7.500
Fe 50.000 40.000 10.000
Cu 50.000 40.000 12.500
Fe 50.000 40.000 15.000
Cu 50.000 40.000 17.500
Fe 50.000 40.000 20.000
Cu 50.000 40.000 22.500
Fe 50.000 40.000 25.000
Cu 50.000 40.000 27.500
Fe 50.000 40.000 30.000
Cu 50.000 40.000 32.500
Fe 50.000 40.000 35.000
Cu 50.000 40.000 37.500
Fe 50.000 40.000 40.000
Cu 50.000 40.000 42.500
Fe 50.000 40.000 45.000
Cu 50.000 40.000 47.500
Fe 50.000 40.000 50.000
Cu 50.000 40.000 52.500
Fe 50.000 40.000 55.000
Cu 50.000 42.500 0.000
Fe 50.000 42.500 2.500
Cu 50.000 42.500 5.000
Fe 50.000 42.500 7.500
Cu 50.000 42.500 10.000
Fe 50.000 42.500 12.500
Cu 50.000 42.500 15.000
Fe 50.000 42.500 17.500
Cu 50.000 42.500 20.000
Fe 50.000 42.500 22.500
Cu 50.000 42.500 25.000
Fe 50.000 42.500 27.500
Cu 50.000 42.500 30.000
Fe 50.000 42.500 32.500
Cu 50.000 42.500 35.000
Fe 50.000 42.500 37.500
Cu 50.000 42.500 40.000
Fe 50.000 42.500 42.500
Cu 50.000 42.500 45.000
Fe 50.000 42.500 47.500
Cu 50.000 42.500 50.000
Fe 50.000 42.500 52.500
Cu 50.000 42.500 55.000
Fe 50.000 45.000 0.000
Cu 50.000 45.000 2.500
Fe 50.000 45.000 5.000
Cu 50.000 45.000 7.500
Fe 50.000 45.000 10.000
Cu 50.000 45.000 12.500
Fe 50.000 45.000 15.000
Cu 50.000 45.000 17.500
Fe 50.000 45.000 20.000
Cu 50.000 45.000 22.500
Fe 50.000 45.000 25.000
Cu 50.000 45.000 27.500
Fe 50.000 45.000 30.000
Cu 50.000 45.000 32.500
Fe 50.000 45.000 35.000
Cu 50.000 45.000 37.500
Fe 50.000 45.000 40.000
Cu 50.000 45.000 42.500
Fe 50.000 45.000 45.000
Cu 50.000 45.000 47.500
Fe 50.000 45.000 50.000
Cu 50.000 45.000 52.500
Fe 50.000 45.000 55.000
Cu 50.000 47.500 0.000
Fe 50.000 47.500 2.500
Cu 50.000 47.500 5.000
Fe 50.000 47.500 7.500
Cu 50.000 47.500 10.000
Fe 50.000 47.500 12.500
Cu 50.000 47.500 15.000
Fe 50.000 47.500 17.500
Cu 50.000 47.500 20.000
Fe 50.000 47.500 22.500
Cu 50.000 47.500 25.000
Fe 50.000 47.500 27.500
Cu 50.000 47.500 30.000
Fe 50.000 47.500 32.500
Cu 50.000 47.500 35.000
Fe 50.000 47.500 37.500
Cu 50.000 47.500 40.000
Fe 50.000 47.500 42.500
Cu 50.000 47.500 45.000
Fe 50.000 47.500 47.500
Cu 50.000 47.500 50.000
Fe 50.000 47.500 52.500
Cu 50.000 47.500 55.000
Fe 50.000 50.000 0.000
Cu 50.000 50.000 2.500
Fe 50.000 50.000 5.000
Cu 50.000 50.000 7.500
Fe 50.000 50.000 10.000
Cu 50.000 50.000 12.500
Fe 50.000 50.000 15.000
Cu 50.000 50.000 17.500
Fe 50.000 50.000 20.000
Cu 50.000 50.000 22.500
Fe 50.000 50.000 25.000
Cu 50.000 50.000 27.500
Fe 50.000 50.000 30.000
Cu 50.000 50.000 32.500
Fe 50.000 50.000 35.000
Cu 50.000 50.000 37.500
Fe 50.000 50.000 40.000
Cu 50.000 50.000 42.500
Fe 50.000 50.000 45.000
Cu 50.000 50.000 47.500
Fe 50.000 50.000 50.000
Cu 50.000 50.000 52.500
Fe 50.000 50.000 55.000
Cu 50.000 52.500 0.000
Fe 50.000 52.500 2.500
Cu 50.000 52.500 5.000
Fe 50.000 52.500 7.500
Cu 50.000 52.500 10.000
Fe 50.000 52.500 12.500
Cu 50.000 52.500 15.000
Fe 50.000 52.500 17.500
Cu 50.000 52.500 20.000
Fe 50.000 52.500 22.500
Cu 50.000 52.500 25.000
Fe 50.000 52.500 27.500
Cu 50.000 52.500 30.000
Fe 50.000 52.500 32.500
Cu 50.000 52.500 35.000
Fe 50.000 52.500 37.500
Cu 50.000 52.500 40.000
Fe 50.000 52.500 42.500
Cu 50.000 52.500 45.000
Fe 50.000 52.500 47.500
Cu 50.000 52.500 50.000
Fe 50.000 52.500 52.500
Cu 50.000 52.500 55.000
Fe 50.000 55.000 0.000
Cu 50.000 55.000 2.500
Fe 50.000 55.000 5.000
Cu 50.000 55.000 7.500
Fe 50.000 55.000 10.000
Cu 50.000 55.000 12.500
Fe 50.000 55.000 15.000
Cu 50.000 55.000 17.500
Fe 50.000 55.000 20.000
Cu 50.000 55.000 22.500
Fe 50.000 55.000 25.000
Cu 50.000 55.000 27.500
Fe 50.000 55.000 30.000
Cu 50.000 55.000 32.500
Fe 50.000 55.000 35.000
Cu 50.000 55.000 37.500
Fe 50.000 55.000 40.000
Cu 50.000 55.000 42.500
Fe 50.000 55.000 45.000
Cu 50.000 55.000 47.500
Fe 50.000 55.000 50.000
Cu 50.000 55.000 52.500
Fe 50.000 55.000 55.000
Cu 52.500 0.000 0.000
Fe 52.500 0.000 2.500
Cu 52.500 0.000 5.000
Fe 52.500 0.000 7.500
Cu 52.500 0.000 10.000
Fe 52.500 0.000 12.500
Cu 52.500 0.000 15.000
Fe 52.500 0.000 17.500
Cu 52.500 0.000 20.000
Fe 52.500 0.000 22.500
Cu 52.500 0.000 25.000
Fe 52.500 0.000 27.500
Cu 52.500 0.000 30.000
Fe 52.500 0.000 32.500
Cu 52.500 0.000 35.000
Fe 52.500 0.000 37.500
Cu 52.500 0.000 40.000
Fe 52.500 0.000 42.500
Cu 52.500 0.000 45.000
Fe 52.500 0.000 47.500
Cu 52.500 0.000 50.000
Fe 52.500 0.000 52.500
Cu 52.500 0.000 55.000
Fe 52.500 2.500 0.000
Cu 52.500 2.500 2.500
Fe 52.500 2.500 5.000
Cu 52.500 2.500 7.500
Fe 52.500 2.500 10.000
Cu 52.500 2.500 12.500
Fe 52.500 2.500 15.000
Cu 52.500 2.500 17.500
Fe 52.500 2.500 20.000
Cu 52.500 2.500 22.500
Fe 52.500 2.500 25.000
Cu 52.500 2.500 27.500
Fe 52.500 2.500 30.000
Cu 52.500 2.500 32.500
Fe 52.500 2.500 35.000
Cu 52.500 2.500 37.500
Fe 52.500 2.500 40.000
Cu 52.500 2.500 42.500
Fe 52.500 2.500 45.000
Cu 52.500 2.500 47.500
Fe 52.500 2.500 50.000
Cu 52.500 2.500 52.500
Fe 52.500 2.500 55.000
Cu 52.500 5.000 0.000
Fe 52.500 5.000 2.500
Cu 52.500 5.000 5.000
Fe 52.500 5.000 7.500
Cu 52.500 5.000 10.000
Fe 52.500 5.000 12.500
Cu 52.500 5.000 15.000
Fe 52.500 5.000 17.500
Cu 52.500 5.000 20.000
Fe 52.500 5.000 22.500
Cu 52.500 5.000 25.000
Fe 52.500 5.000 27.500
Cu 52.500 5.000 30.000
Fe 52.500 5.000 32.500
Cu 52.500 5.000 35.000
Fe 52.500 5.000 37.500
Cu 52.500 5.000 40.000
Fe 52.500 5.000 42.500
Cu 52.500 5.000 45.000
Fe 52.500 5.000 47.500
Cu 52.500 5.000 50.000
Fe 52.500 5.000 52.500
Cu 52.500 5.000 55.000
Fe 52.500 7.500 0.000
Cu 52.500 7.500 2.500
Fe 52.500 7.500 5.000
Cu 52.500 7.500 7.500
Fe 52.500 7.500 10.000
Cu 52.500 7.500 12.500
Fe 52.500 7.500 15.000
Cu 52.500 7.500 17.500
Fe 52.500 7.500 20.000
Cu 52.500 7.500 22.500
Fe 52.500 7.500 25.000
Cu 52.500 7.500 27.500
Fe 52.500 7.500 30.000
Cu 52.500 7.500 32.500
Fe 52.500 7.500 35.000
Cu 52.500 7.500 37.500
Fe 52.500 7.500 40.000
Cu 52.500 7.500 42.500
Fe 52.500 7.500 45.000
Cu 52.500 7.500 47.500
Fe 52.500 7.500 50.000
Cu 52.500 7.500 52.500
Fe 52.500 7.500 55.000
Cu 52.500 10.000 0.000
Fe 52.500 10.000 2.500
Cu 52.500 10.000 5.000
Fe 52.500 10.000 7.500
Cu 52.500 10.000 10.000
Fe 52.500 10.000 12.500
Cu 52.500 10.000 15.000
Fe 52.500 10.000 17.500
Cu 52.500 10.000 20.000
Fe 52.500 10.000 22.500
Cu 52.500 10.000 25.000
Fe 52.500 10.000 27.500
Cu 52.500 10.000 30.000
Fe 52.500 10.000 32.500
Cu 52.500 10.000 35.000
Fe 52.500 10.000 37.500
Cu 52.500 10.000 40.000
Fe 52.500 10.000 42.500
Cu 52.500 10.000 45.000
Fe 52.500 10.000 47.500
Cu 52.500 10.000 50.000
Fe 52.500 10.000 52.500
Cu 52.500 10.000 55.000
Fe 52.500 12.500 0.000
Cu 52.500 12.500 2.500
Fe 52.500 12.500 5.000
Cu 52.500 12.500 7.500
Fe 52.500 12.500 10.000
Cu 52.500 12.500 12.500
Fe 52.500 12.500 15.000
Cu 52.500 12.500 17.500
Fe 52.500 12.500 20.000
Cu 52.500 12.500 22.500
Fe 52.500 12.500 25.000
Cu 52.500 12.500 27.500
Fe 52.500 12.500 30.000
Cu 52.500 12.500 32.500
Fe 52.500 12.500 35.000
Cu 52.500 12.500 37.500
Fe 52.500 12.500 40.000
Cu 52.500 12.500 42.500
Fe 52.500 12.500 45.000
Cu 52.500 12.500 47.500
Fe 52.500 12.500 50.000
Cu 52.500 12.500 52.500
Fe 52.500 12.500 55.000
Cu 52.500 15.000 0.000
Fe 52.500 15.000 2.500
Cu 52.500 15.000 5.000
Fe 52.500 15.000 7.500
Cu 52.500 15.000 10.000
Fe 52.500 15.000 12.500
Cu 52.500 15.000 15.000
Fe 52.500 15.000 17.500
Cu 52.500 15.000 20.000
Fe 52.500 15.000 22.500
Cu 52.500 15.000 25.000
Fe 52.500 15.000 27.500
Cu 52.500 15.000 30.000
Fe 52.500 15.000 32.500
Cu 52.500 15.000 35.000
Fe 52.500 15.000 37.500
Cu 52.500 15.000 40.000
Fe 52.500 15.000 42.500
Cu 52.500 15.000 45.000
Fe 52.500 15.000 47.500
Cu 52.500 15.000 50.000
Fe 52.500 15.000 52.500
Cu 52.500 15.000 55.000
Fe 52.500 17.500 0.000
Cu 52.500 17.500 2.500
Fe 52.500 17.500 5.000
Cu 52.500 17.500 7.500
Fe 52.500 17.500 10.000
Cu 52.500 17.500 12.500
Fe 52.500 17.500 15.000
Cu 52.500 17.500 17.500
Fe 52.500 17.500 20.000
Cu 52.500 17.500 22.500
Fe 52.500 17.500 25.000
Cu 52.500 17.500 27.500
Fe 52.500 17.500 30.000
Cu 52.500 17.500 32.500
Fe 52.500 17.500 35.000
Cu 52.500 17.500 37.500
Fe 52.500 17.500 40.000
Cu 52.500 17.500 42.500
Fe 52.500 17.500 45.000
Cu 52.500 17.500 47.500
Fe 52.500 17.500 50.000
Cu 52.500 17.500 52.500
Fe 52.500 17.500 55.000
Cu 52.500 20.000 0.000
Fe 52.500 20.000 2.500
Cu 52.500 20.000 5.000
Fe 52.500 20.000 7.500
Cu 52.500 20.000 10.000
Fe 52.500 20.000 12.500
Cu 52.500 20.000 15.000
Fe 52.500 20.000 17.500
Cu 52.500 20.000 20.000
Fe 52.500 20.000 22.500
Cu 52.500 20.000 25.000
Fe 52.500 20.000 27.500
Cu 52.500 20.000 30.000
Fe 52.500 20.000 32.500
Cu 52.500 20.000 35.000
Fe 52.500 20.000 37.500
Cu 52.500 20.000 40.000
Fe 52.500 20.000 42.500
Cu 52.500 20.000 45.000
Fe 52.500 20.000 47.500
Cu 52.500 20.000 50.000
Fe 52.500 20.000 52.500
Cu 52.500 20.000 55.000
Fe 52.500 22.500 0.000
Cu 52.500 22.500 2.500
Fe 52.500 22.500 5.000
Cu 52.500 22.500 7.500
Fe 52.500 22.500 10.000
Cu 52.500 22.500 12.500
Fe 52.500 22.500 15.000
Cu 52.500 22.500 17.500
Fe 52.500 22.500 20.000
Cu 52.500 22.500 22.500
Fe 52.500 22.500 25.000
Cu 52.500 22.500 27.500
Fe 52.500 22.500 30.000
Cu 52.500 22.500 32.500
Fe 52.500 22.500 35.000
Cu 52.500 22.500 37.500
Fe 52.500 22.500 40.000
Cu 52.500 22.500 42.500
Fe 52.500 22.500 45.000
Cu 52.500 22.500 47.500
Fe 52.500 22.500 50.000
Cu 52.500 22.500 52.500
Fe 52.500 22.500 55.000
Cu 52.500 25.000 0.000
Fe 52.500 25.000 2.500
Cu 52.500 25.000 5.000
Fe 52.500 25.000 7.500
Cu 52.500 25.000 10.000
Fe 52.500 25.000 12.500
Cu 52.500 25.000 15.000
Fe 52.500 25.000 17.500
Cu 52.500 25.000 20.000
Fe 52.500 25.000 22.500
Cu 52.500 25.000 25.000
Fe 52.500 25.000 27.500
Cu 52.500 25.000 30.000
Fe 52.500 25.000 32.500
Cu 52.500 25.000 35.000
Fe 52.500 25.000 37.500
Cu 52.500 25.000 40.000
Fe 52.500 25.000 42.500
Cu 52.500 25.000 45.000
Fe 52.500 25.000 47.500
Cu 52.500 25.000 50.000
Fe 52.500 25.000 52.500
Cu 52.500 25.000 55.000
Fe 52.500 27.500 0.000
Cu 52.500 27.500 2.500
Fe 52.500 27.500 5.000
Cu 52.500 27.500 7.500
Fe 52.500 27.500 10.000
Cu 52.500 27.500 12.500
Fe 52.500 27.500 15.000
Cu 52.500 27.500 17.500
Fe 52.500 27.500 20.000
Cu 52.500 27.500 22.500
Fe 52.500 27.500 25.000
Cu 52.500 27.500 27.500
Fe 52.500 27.500 30.000
Cu 52.500 27.500 32.500
Fe 52.500 27.500 35.000
Cu 52.500 27.500 37.500
Fe 52.500 27.500 40.000
Cu 52.500 27.500 42.500
Fe 52.500 27.500 45.000
Cu 52.500 27.500 47.500
Fe 52.500 27.500 50.000
Cu 52.500 27.500 52.500
Fe 52.500 27.500 55.000
Cu 52.500 30.000 0.000
Fe 52.500 30.000 2.500
Cu 52.500 30.000 5.000
Fe 52.500 30.000 7.500
Cu 52.500 30.000 10.000
Fe 52.500 30.000 12.500
Cu 52.500 30.000 15.000
Fe 52.500 30.000 17.500
Cu 52.500 30.000 20.000
Fe 52.500 30.000 22.500
Cu 52.500 30.000 25.000
Fe 52.500 30.000 27.500
Cu 52.500 30.000 30.000
Fe 52.500 30.000 32.500
Cu 52.500 30.000 35.000
Fe 52.500 30.000 37.500
Cu 52.500 30.000 40.000
Fe 52.500 30.000 42.500
Cu 52.500 30.000 45.000
Fe 52.500 30.000 47.500
Cu 52.500 30.000 50.000
Fe 52.500 30.000 52.500
Cu 52.500 30.000 55.000
Fe 52.500 32.500 0.000
Cu 52.500 32.500 2.500
Fe 52.500 32.500 5.000
Cu 52.500 32.500 7.500
Fe 52.500 32.500 10.000
Cu 52.500 32.500 12.500
Fe 52.500 32.500 15.000
Cu 52.500 32.500 17.500
Fe 52.500 32.500 20.000
Cu 52.500 32.500 22.500
Fe 52.500 32.500 25.000
Cu 52.500 32.500 27.500
Fe 52.500 32.500 30.000
Cu 52.500 32.500 32.500
Fe 52.500 32.500 35.000
Cu 52.500 32.500 37.500
Fe 52.500 32.500 40.000
Cu 52.500 32.500 42.500
Fe 52.500 32.500 45.000
Cu 52.500 32.500 47.500
Fe 52.500 32.500 50.000
Cu 52.500 32.500 52.500
Fe 52.500 32.500 55.000
Cu 52.500 35.000 0.000
Fe 52.500 35.000 2.500
Cu 52.500 35.000 5.000
Fe 52.500 35.000 7.500
Cu 52.500 35.000 10.000
Fe 52.500 35.000 12.500
Cu 52.500 35.000 15.000
Fe 52.500 35.000 17.500
Cu 52.500 35.000 20.000
Fe 52.500 35.000 22.500
Cu 52.500 35.000 25.000
Fe 52.500 35.000 27.500
Cu 52.500 35.000 30.000
Fe 52.500 35.000 32.500
Cu 52.500 35.000 35.000
Fe 52.500 35.000 37.500
Cu 52.500 35.000 40.000
Fe 52.500 35.000 42.500
Cu 52.500 35.000 45.000
Fe 52.500 35.000 47.500
Cu 52.500 35.000 50.000
Fe 52.500 35.000 52.500
Cu 52.500 35.000 55.000
Fe 52.500 37.500 0.000
Cu 52.500 37.500 2.500
Fe 52.500 37.500 5.000
Cu 52.500 37.500 7.500
Fe 52.500 37.500 10.000
Cu 52.500 37.500 12.500
Fe 52.500 37.500 15.000
Cu 52.500 37.500 17.500
Fe 52.500 37.500 20.000
Cu 52.500 37.500 22.500
Fe 52.500 37.500 25.000
Cu 52.500 37.500 27.500
Fe 52.500 37.500 30.000
Cu 52.500 37.500 32.500
Fe 52.500 37.500 35.000
Cu 52.500 37.500 37.500
Fe 52.500 37.500 40.000
Cu 52.500 37.500 42.500
Fe 52.500 37.500 45.000
Cu 52.500 37.500 47.500
Fe 52.500 37.500 50.000
Cu 52.500 37.500 52.500
Fe 52.500 37.500 55.000
Cu 52.500 40.000 0.000
Fe 52.500 40.000 2.500
Cu 52.500 40.000 5.000
Fe 52.500 40.000 7.500
Cu 52.500 40.000 10.000
Fe 52.500 40.000 12.500
Cu 52.500 40.000 15.000
Fe 52.500 40.000 17.500
Cu 52.500 40.000 20.000
Fe 52.500 40.000 22.500
Cu 52.500 40.000 25.000
Fe 52.500 40.000 27.500
Cu 52.500 40.000 30.000
Fe 52.500 40.000 32.500
Cu 52.500 40.000 35.000
Fe 52.500 40.000 37.500
Cu 52.500 40.000 40.000
Fe 52.500 40.000 42.500
Cu 52.500 40.000 45.000
Fe 52.500 40.000 47.500
Cu 52.500 40.000 50.000
Fe 52.500 40.000 52.500
Cu 52.500 40.000 55.000
Fe 52.500 42.500 0.000
Cu 52.500 42.500 2.500
Fe 52.500 42.500 5.000
Cu 52.500 42.500 7.500
Fe 52.500 42.500 10.000
Cu 52.500 42.500 12.500
Fe 52.500 42.500 15.000
Cu 52.500 42.500 17.500
Fe 52.500 42.500 20.000
Cu 52.500 42.500 22.500
Fe 52.500 42.500 25.000
Cu 52.500 42.500 27.500
Fe 52.500 42.500 30.000
Cu 52.500 42.500 32.500
Fe 52.500 42.500 35.000
Cu 52.500 42.500 37.500
Fe 52.500 42.500 40.000
Cu 52.500 42.500 42.500
Fe 52.500 42.500 45.000
Cu 52.500 42.500 47.500
Fe 52.500 42.500 50.000
Cu 52.500 42.500 52.500
Fe 52.500 42.500 55.000
Cu 52.500 45.000 0.000
Fe 52.500 45.000 2.500
Cu 52.500 45.000 5.000
Fe 52.500 45.000 7.500
Cu 52.500 45.000 10.000
Fe 52.500 45.000 12.500
Cu 52.500 45.000 15.000
Fe 52.500 45.000 17.500
Cu 52.500 45.000 20.000
Fe 52.500 45.000 22.500
Cu 52.500 45.000 25.000
Fe 52.500 45.000 27.500
Cu 52.500 45.000 30.000
Fe 52.500 45.000 32.500
Cu 52.500 45.000 35.000
Fe 52.500 45.000 37.500
Cu 52.500 45.000 40.000
Fe 52.500 45.000 42.500
Cu 52.500 45.000 45.000
Fe 52.500 45.000 47.500
Cu 52.500 45.000 50.000
Fe 52.500 45.000 52.500
Cu 52.500 45.000 55.000
Fe 52.500 47.500 0.000
Cu 52.500 47.500 2.500
Fe 52.500 47.500 5.000
Cu 52.500 47.500 7.500
Fe 52.500 47.500 10.000
Cu 52.500 47.500 12.500
Fe 52.500 47.500 15.000
Cu 52.500 47.500 17.500
Fe 52.500 47.500 20.000
Cu 52.500 47.500 22.500
Fe 52.500 47.500 25.000
Cu 52.500 47.500 27.500
Fe 52.500 47.500 30.000
Cu 52.500 47.500 32.500
Fe 52.500 47.500 35.000
Cu 52.500 47.500 37.500
Fe 52.500 47.500 40.000
Cu 52.500 47.500 42.500
Fe 52.500 47.500 45.000
Cu 52.500 47.500 47.500
Fe 52.500 47.500 50.000
Cu 52.500 47.500 52.500
Fe 52.500 47.500 55.000
Cu 52.500 50.000 0.000
Fe 52.500 50.000 2.500
Cu 52.500 50.000 5.000
Fe 52.500 50.000 7.500
Cu 52.500 50.000 10.000
Fe 52.500 50.000 12.500
Cu 52.500 50.000 15.000
Fe 52.500 50.000 17.500
Cu 52.500 50.000 20.000
Fe 52.500 50.000 22.500
Cu 52.500 50.000 25.000
Fe 52.500 50.000 27.500
Cu 52.500 50.000 30.000
Fe 52.500 50.000 32.500
Cu 52.500 50.000 35.000
Fe 52.500 50.000 37.500
Cu 52.500 50.000 40.000
Fe 52.500 50.000 42.500
Cu 52.500 50.000 45.000
Fe 52.500 50.000 47.500
Cu 52.500 50.000 50.000
Fe 52.500 50.000 52.500
Cu 52.500 50.000 55.000
Fe 52.500 52.500 0.000
Cu 52.500 52.500 2.500
Fe 52.500 52.500 5.000
Cu 52.500 52.500 7.500
Fe 52.500 52.500 10.000
Cu 52.500 52.500 12.500
Fe 52.500 52.500 15.000
Cu 52.500 52.500 17.500
Fe 52.500 52.500 20.000
Cu 52.500 52.500 22.500
Fe 52.500 52.500 25.000
Cu 52.500 52.500 27.500
Fe 52.500 52.500 30.000
Cu 52.500 52.500 32.500
Fe 52.500 52.500 35.000
Cu 52.500 52.500 37.500
Fe 52.500 52.500 40.000
Cu 52.500 52.500 42.500
Fe 52.500 52.500 45.000
Cu 52.500 52.500 47.500
Fe 52.500 52.500 50.000
Cu 52.500 52.500 52.500
Fe 52.500 52.500 55.000
Cu 52.500 55.000 0.000
Fe 52.500 55.000 2.500
Cu 52.500 55.000 5.000
Fe 52.500 55.000 7.500
Cu 52.500 55.000 10.000
Fe 52.500 55.000 12.500
Cu 52.500 55.000 15.000
Fe 52.500 55.000 17.500
Cu 52.500 55.000 20.000
Fe 52.500 55.000 22.500
Cu 52.500 55.000 25.000
Fe 52.500 55.000 27.500
Cu 52.500 55.000 30.000
Fe 52.500 55.000 32.500
Cu 52.500 55.000 35.000
Fe 52.500 55.000 37.500
Cu 52.500 55.000 40.000
Fe 52.500 55.000 42.500
Cu 52.500 55.000 45.000
Fe 52.500 55.000 47.500
Cu 52.500 55.000 50.000
Fe 52.500 55.000 52.500
Cu 52.500 55.000 55.000
Fe 55.000 0.000 0.000
Cu 55.000 0.000 2.500
Fe 55.000 0.000 5.000
Cu 55.000 0.000 7.500
Fe 55.000 0.000 10.000
Cu 55.000 0.000 12.500
Fe 55.000 0.000 15.000
Cu 55.000 0.000 17.500
Fe 55.000 0.000 20.000
Cu 55.000 0.000 22.500
Fe 55.000 0.000 25.000
Cu 55.000 0.000 27.500
Fe 55.000 0.000 30.000
Cu 55.000 0.000 32.500
Fe 55.000 0.000 35.000
Cu 55.000 0.000 37.500
Fe 55.000 0.000 40.000
Cu 55.000 0.000 42.500
Fe 55.000 0.000 45.000
Cu 55.000 0.000 47.500
Fe 55.000 0.000 50.000
Cu 55.000 0.000 52.500
Fe 55.000 0.000 55.000
Cu 55.000 2.500 0.000
Fe 55.000 2.500 2.500
Cu 55.000 2.500 5.000
Fe 55.000 2.500 7.500
Cu 55.000 2.500 10.000
Fe 55.000 2.500 12.500
Cu 55.000 2.500 15.000
Fe 55.000 2.500 17.500
Cu 55.000 2.500 20.000
Fe 55.000 2.500 22.500
Cu 55.000 2.500 25.000
Fe 55.000 2.500 27.500
Cu 55.000 2.500 30.000
Fe 55.000 2.500 32.500
Cu 55.000 2.500 35.000
Fe 55.000 2.500 37.500
Cu 55.000 2.500 40.000
Fe 55.000 2.500 42.500
Cu 55.000 2.500 45.000
Fe 55.000 2.500 47.500
Cu 55.000 2.500 50.000
Fe 55.000 2.500 52.500
Cu 55.000 2.500 55.000
Fe 55.000 5.000 0.000
Cu 55.000 5.000 2.500
Fe 55.000 5.000 5.000
Cu 55.000 5.000 7.500
Fe 55.000 5.000 10.000
Cu 55.000 5.000 12.500
Fe 55.000 5.000 15.000
Cu 55.000 5.000 17.500
Fe 55.000 5.000 20.000
Cu 55.000 5.000 22.500
Fe 55.000 5.000 25.000
Cu 55.000 5.000 27.500
Fe 55.000 5.000 30.000
Cu 55.000 5.000 32.500
Fe 55.000 5.000 35.000
Cu 55.000 5.000 37.500
Fe 55.000 5.000 40.000
Cu 55.000 5.000 42.500
Fe 55.000 5.000 45.000
Cu 55.000 5.000 47.500
Fe 55.000 5.000 50.000
Cu 55.000 5.000 52.500
Fe 55.000 5.000 55.000
Cu 55.000 7.500 0.000
Fe 55.000 7.500 2.500
Cu 55.000 7.500 5.000
Fe 55.000 7.500 7.500
Cu 55.000 7.500 10.000
Fe 55.000 7.500 12.500
Cu 55.000 7.500 15.000
Fe 55.000 7.500 17.500
Cu 55.000 7.500 20.000
Fe 55.000 7.500 22.500
Cu 55.000 7.500 25.000
Fe 55.000 7.500 27.500
Cu 55.000 7.500 30.000
Fe 55.000 7.500 32.500
Cu 55.000 7.500 35.000
Fe 55.000 7.500 37.500
Cu 55.000 7.500 40.000
Fe 55.000 7.500 42.500
Cu 55.000 7.500 45.000
Fe 55.000 7.500 47.500
Cu 55.000 7.500 50.000
Fe 55.000 7.500 52.500
Cu 55.000 7.500 55.000
Fe 55.000 10.000 0.000
Cu 55.000 10.000 2.500
Fe 55.000 10.000 5.000
Cu 55.000 10.000 7.500
Fe 55.000 10.000 10.000
Cu 55.000 10.000 12.500
Fe 55.000 10.000 15.000
Cu 55.000 10.000 17.500
Fe 55.000 10.000 20.000
Cu 55.000 10.000 22.500
Fe 55.000 10.000 25.000
Cu 55.000 10.000 27.500
Fe 55.000 10.000 30.000
Cu 55.000 10.000 32.500
Fe 55.000 10.000 35.000
Cu 55.000 10.000 37.500
Fe 55.000 10.000 40.000
Cu 55.000 10.000 42.500
Fe 55.000 10.000 45.000
Cu 55.000 10.000 47.500
Fe 55.000 10.000 50.000
Cu 55.000 10.000 52.500
Fe 55.000 10.000 55.000
Cu 55.000 12.500 0.000
Fe 55.000 12.500 2.500
Cu 55.000 12.500 5.000
Fe 55.000 12.500 7.500
Cu 55.000 12.500 10.000
Fe 55.000 12.500 12.500
Cu 55.000 12.500 15.000
Fe 55.000 12.500 17.500
Cu 55.000 12.500 20.000
Fe 55.000 12.500 22.500
Cu 55.000 12.500 25.000
Fe 55.000 12.500 27.500
Cu 55.000 12.500 30.000
Fe 55.000 12.500 32.500
Cu 55.000 12.500 35.000
Fe 55.000 12.500 37.500
Cu 55.000 12.500 40.000
Fe 55.000 12.500 42.500
Cu 55.000 12.500 45.000
Fe 55.000 12.500 47.500
Cu 55.000 12.500 50.000
Fe 55.000 12.500 52.500
Cu 55.000 12.500 55.000
Fe 55.000 15.000 0.000
Cu 55.000 15.000 2.500
Fe 55.000 15.000 5.000
Cu 55.000 15.000 7.500
Fe 55.000 15.000 10.000
Cu 55.000 15.000 12.500
Fe 55.000 15.000 15.000
Cu 55.000 15.000 17.500
Fe 55.000 15.000 20.000
Cu 55.000 15.000 22.500
Fe 55.000 15.000 25.000
Cu 55.000 15.000 27.500
Fe 55.000 15.000 30.000
Cu 55.000 15.000 32.500
Fe 55.000 15.000 35.000
Cu 55.000 15.000 37.500
Fe 55.000 15.000 40.000
Cu 55.000 15.000 42.500
Fe 55.000 15.000 45.000
Cu 55.000 15.000 47.500
Fe 55.000 15.000 50.000
Cu 55.000 15.000 52.500
Fe 55.000 15.000 55.000
Cu 55.000 17.500 0.000
Fe 55.000 17.500 2.500
Cu 55.000 17.500 5.000
Fe 55.000 17.500 7.500
Cu 55.000 17.500 10.000
Fe 55.000 17.500 12.500
Cu 55.000 17.500 15.000
Fe 55.000 17.500 17.500
Cu 55.000 17.500 20.000
Fe 55.000 17.500 22.500
Cu 55.000 17.500 25.000
Fe 55.000 17.500 27.500
Cu 55.000 17.500 30.000
Fe 55.000 17.500 32.500
Cu 55.000 17.500 35.000
Fe 55.000 17.500 37.500
Cu 55.000 17.500 40.000
Fe 55.000 17.500 42.500
Cu 55.000 17.500 45.000
Fe 55.000 17.500 47.500
Cu 55.000 17.500 50.000
Fe 55.000 17.500 52.500
Cu 55.000 17.500 55.000
Fe 55.000 20.000 0.000
Cu 55.000 20.000 2.500
Fe 55.000 20.000 5.000
Cu 55.000 20.000 7.500
Fe 55.000 20.000 10.000
Cu 55.000 20.000 12.500
Fe 55.000 20.000 15.000
Cu 55.000 20.000 17.500
Fe 55.000 20.000 20.000
Cu 55.000 20.000 22.500
Fe 55.000 20.000 25.000
Cu 55.000 20.000 27.500
Fe 55.000 20.000 30.000
Cu 55.000 20.000 32.500
Fe 55.000 20.000 35.000
Cu 55.000 20.000 37.500
Fe 55.000 20.000 40.000
Cu 55.000 20.000 42.500
Fe 55.000 20.000 45.000
Cu 55.000 20.000 47.500
Fe 55.000 20.000 50.000
Cu 55.000 20.000 52.500
Fe 55.000 20.000 55.000
Cu 55.000 22.500 0.000
Fe 55.000 22.500 2.500
Cu 55.000 22.500 5.000
Fe 55.000 22.500 7.500
Cu 55.000 22.500 10.000
Fe 55.000 22.500 12.500
Cu 55.000 22.500 15.000
Fe 55.000 22.500 17.500
Cu 55.000 22.500 20.000
Fe 55.000 22.500 22.500
Cu 55.000 22.500 25.000
Fe 55.000 22.500 27.500
Cu 55.000 22.500 30.000
Fe 55.000 22.500 32.500
Cu 55.000 22.500 35.000
Fe 55.000 22.500 37.500
Cu 55.000 22.500 40.000
Fe 55.000 22.500 42.500
Cu 55.000 22.500 45.000
Fe 55.000 22.500 47.500
Cu 55.000 22.500 50.000
Fe 55.000 22.500 52.500
Cu 55.000 22.500 55.000
Fe 55.000 25.000 0.000
Cu 55.000 25.000 2.500
Fe 55.000 25.000 5.000
Cu 55.000 25.000 7.500
Fe 55.000 25.000 10.000
Cu 55.000 25.000 12.500
Fe 55.000 25.000 15.000
Cu 55.000 25.000 17.500
Fe 55.000 25.000 20.000
Cu 55.000 25.000 22.500
Fe 55.000 25.000 25.000
Cu 55.000 25.000 27.500
Fe 55.000 25.000 30.000
Cu 55.000 25.000 32.500
Fe 55.000 25.000 35.000
Cu 55.000 25.000 37.500
Fe 55.000 25.000 40.000
Cu 55.000 25.000 42.500
Fe 55.000 25.000 45.000
Cu 55.000 25.000 47.500
Fe 55.000 25.000 50.000
Cu 55.000 25.000 52.500
Fe 55.000 25.000 55.000
Cu 55.000 27.500 0.000
Fe 55.000 27.500 2.500
Cu 55.000 27.500 5.000
Fe 55.000 27.500 7.500
Cu 55.000 27.500 10.000
Fe 55.000 27.500 12.500
Cu 55.000 27.500 15.000
Fe 55.000 27.500 17.500
Cu 55.000 27.500 20.000
Fe 55.000 27.500 22.500
Cu 55.000 27.500 25.000
Fe 55.000 27.500 27.500
Cu 55.000 27.500 30.000
Fe 55.000 27.500 32.500
Cu 55.000 27.500 35.000
Fe 55.000 27.500 37.500
Cu 55.000 27.500 40.000
Fe 55.000 27.500 42.500
Cu 55.000 27.500 45.000
Fe 55.000 27.500 47.500
Cu 55.000 27.500 50.000
Fe 55.000 27.500 52.500
Cu 55.000 27.500 55.000
Fe 55.000 30.000 0.000
Cu 55.000 30.000 2.500
Fe 55.000 30.000 5.000
Cu 55.000 30.000 7.500
Fe 55.000 30.000 10.000
Cu 55.000 30.000 12.500
Fe 55.000 30.000 15.000
Cu 55.000 30.000 17.500
Fe 55.000 30.000 20.000
Cu 55.000 30.000 22.500
Fe 55.000 30.000 25.000
Cu 55.000 30.000 27.500
Fe 55.000 30.000 30.000
Cu 55.000 30.000 32.500
Fe 55.000 30.000 35.000
Cu 55.000 30.000 37.500
Fe 55.000 30.000 40.000
Cu 55.000 30.000 42.500
Fe 55.000 30.000 45.000
Cu 55.000 30.000 47.500
Fe 55.000 30.000 50.000
Cu 55.000 30.000 52.500
Fe 55.000 30.000 55.000
Cu 55.000 32.500 0.000
Fe 55.000 32.500 2.500
Cu 55.000 32.500 5.000
Fe 55.000 32.500 7.500
Cu 55.000 32.500 10.000
Fe 55.000 32.500 12.500
Cu 55.000 32.500 15.000
Fe 55.000 32.500 17.500
Cu 55.000 32.500 20.000
Fe 55.000 32.500 22.500
Cu 55.000 32.500 25.000
Fe 55.000 32.500 27.500
Cu 55.000 32.500 30.000
Fe 55.000 32.500 32.500
Cu 55.000 32.500 35.000
Fe 55.000 32.500 37.500
Cu 55.000 32.500 40.000
Fe 55.000 32.500 42.500
Cu 55.000 32.500 45.000
Fe 55.000 32.500 47.500
Cu 55.000 32.500 50.000
Fe 55.000 32.500 52.500
Cu 55.000 32.500 55.000
Fe 55.000 35.000 0.000
Cu 55.000 35.000 2.500
Fe 55.000 35.000 5.000
Cu 55.000 35.000 7.500
Fe 55.000 35.000 10.000
Cu 55.000 35.000 12.500
Fe 55.000 35.000 15.000
Cu 55.000 35.000 17.500
Fe 55.000 35.000 20.000
Cu 55.000 35.000 22.500
Fe 55.000 35.000 25.000
Cu 55.000 35.000 27.500
Fe 55.000 35.000 30.000
Cu 55.000 35.000 32.500
Fe 55.000 35.000 35.000
Cu 55.000 35.000 37.500
Fe 55.000 35.000 40.000
Cu 55.000 35.000 42.500
Fe 55.000 35.000 45.000
Cu 55.000 35.000 47.500
Fe 55.000 35.000 50.000
Cu 55.000 35.000 52.500
Fe 55.000 35.000 55.000
Cu 55.000 37.500 0.000
Fe 55.000 37.500 2.500
Cu 55.000 37.500 5.000
Fe 55.000 37.500 7.500
Cu 55.000 37.500 10.000
Fe 55.000 37.500 12.500
Cu 55.000 37.500 15.000
Fe 55.000 37.500 17.500
Cu 55.000 37.500 20.000
Fe 55.000 37.500 22.500
Cu 55.000 37.500 25.000
Fe 55.000 37.500 27.500
Cu 55.000 37.500 30.000
Fe 55.000 37.500 32.500
Cu 55.000 37.500 35.000
Fe 55.000 37.500 37.500
Cu 55.000 37.500 40.000
