ITEM: TIMESTEP
0
ITEM: NUMBER OF ATOMS
6
ITEM: BOX BOUNDS pp pp pp
0.0000000000000000e+00 1.2400000000000000e+01
0.0000000000000000e+00 1.2400000000000000e+01
0.0000000000000000e+00 1.2400000000000000e+01
ITEM: ATOMS id type element x y z q
1 1 O 3.000 3.100 5.000 -0.834
2 2 H 3.580 2.850 5.000 0.417
3 2 H 3.580 3.350 5.000 0.417
4 1 O 8.200 8.400 7.200 -0.834
5 2 H 8.780 8.150 7.200 0.417
6 2 H 8.780 8.650 7.200 0.417
ITEM: TIMESTEP
500
ITEM: NUMBER OF ATOMS
6
ITEM: BOX BOUNDS pp pp pp
0.0000000000000000e+00 1.2400000000000000e+01
0.0000000000000000e+00 1.2400000000000000e+01
0.0000000000000000e+00 1.2400000000000000e+01
ITEM: ATOMS id type element x y z q
1 1 O 3.120 3.180 5.090 -0.834
2 2 H 3.700 2.930 5.090 0.417
3 2 H 3.700 3.430 5.090 0.417
4 1 O 8.090 8.310 7.340 -0.834
5 2 H 8.670 8.060 7.340 0.417
6 2 H 8.670 8.560 7.340 0.417
