9
water trimer breathing — frame 1/5
O 0.0000 0.0000 0.0000
H 0.7575 0.5865 0.0000
H -0.7575 0.5865 0.0000
O 3.1000 0.5000 0.2000
H 3.8575 1.0865 0.2000
H 2.3425 1.0865 0.2000
O 1.5500 3.2000 1.4000
H 2.3075 3.7865 1.4000
H 0.7925 3.7865 1.4000

9
water trimer breathing — frame 2/5
O 0.0500 -0.0300 0.0200
H 0.8122 0.5498 0.0300
H -0.7047 0.6229 -0.0100
O 3.0500 0.5400 0.1800
H 3.8003 1.1218 0.2300
H 2.2972 1.0521 0.1400
O 1.6000 3.1500 1.4300
H 2.3521 3.7310 1.3800
H 0.8521 3.7310 1.4500

9
water trimer breathing — frame 3/5
O 0.1000 -0.0500 0.0400
H 0.8670 0.5131 0.0600
H -0.6519 0.6593 -0.0200
O 3.0000 0.5800 0.1600
H 3.7431 1.1571 0.2600
H 2.2519 1.0177 0.0800
O 1.6500 3.1000 1.4600
H 2.3967 3.6755 1.3600
H 0.9117 3.6755 1.5000

9
water trimer breathing — frame 4/5
O 0.1500 -0.0600 0.0600
H 0.9217 0.4764 0.0900
H -0.5991 0.6957 -0.0300
O 2.9500 0.6200 0.1400
H 3.6859 1.1924 0.2900
H 2.2066 0.9833 0.0200
O 1.7000 3.0500 1.4900
H 2.4413 3.6200 1.3400
H 0.9713 3.6200 1.5500

9
water trimer breathing — frame 5/5
O 0.2000 -0.0700 0.0800
H 0.9764 0.4397 0.1200
H -0.5463 0.7321 -0.0400
O 2.9000 0.6600 0.1200
H 3.6287 1.2277 0.3200
H 2.1613 0.9489 -0.0400
O 1.7500 3.0000 1.5200
H 2.4859 3.5645 1.3200
H 1.0309 3.5645 1.6000
